
    -----------------------------------------------------------------------
          Psi4: An Open-Source Ab Initio Electronic Structure Package
                               Psi4 1.11 release

                         Git: Rev {} zzzzzzz 


    D. G. A. Smith, L. A. Burns, A. C. Simmonett, R. M. Parrish,
    M. C. Schieber, R. Galvelis, P. Kraus, H. Kruse, R. Di Remigio,
    A. Alenaizan, A. M. James, S. Lehtola, J. P. Misiewicz, M. Scheurer,
    R. A. Shaw, J. B. Schriber, Y. Xie, Z. L. Glick, D. A. Sirianni,
    J. S. O'Brien, J. M. Waldrop, A. Kumar, E. G. Hohenstein,
    B. P. Pritchard, B. R. Brooks, H. F. Schaefer III, A. Yu. Sokolov,
    K. Patkowski, A. E. DePrince III, U. Bozkaya, R. A. King,
    F. A. Evangelista, J. M. Turney, T. D. Crawford, C. D. Sherrill,
    J. Chem. Phys. 152(18) 184108 (2020). https://doi.org/10.1063/5.0006002

                            Additional Code Authors
    E. T. Seidl, C. L. Janssen, E. F. Valeev, M. L. Leininger,
    J. F. Gonthier, R. M. Richard, H. R. McAlexander, M. Saitow, X. Wang,
    P. Verma, M. H. Lechner, A. Jiang, S. Behnle, A. G. Heide,
    M. F. Herbst, D. L. Poole, T. Győri, E. C. Mitchell, J. P. Pederson,
    and A. M. Wallace

             Previous Authors, Complete List of Code Contributors,
                       and Citations for Specific Modules
    https://github.com/psi4/psi4/blob/master/codemeta.json
    https://github.com/psi4/psi4/graphs/contributors
    https://psicode.org/psi4manual/master/introduction.html#citing-psifour

    -----------------------------------------------------------------------


    Psi4 started on: Sunday, 09 August 2026 04:23PM

    Process ID: 62007
    Host:       choehoyun-ui-MacBookAir.local
    PSIDATADIR: /Users/hoyoun/micromamba/envs/psi4env/share/psi4
    Memory:     500.0 MiB
    Threads:    8
    Addons:     a̶d̶c̶c̶, a̶m̶b̶i̶t̶, b̶s̶e̶, c̶c̶t̶3̶, c̶f̶o̶u̶r̶, c̶h̶e̶m̶p̶s̶2̶, c̶p̶p̶e̶, d̶d̶x̶, dftd3,
                d̶f̶t̶d̶4̶, dkh, ecpint, einsums, f̶o̶r̶t̶e̶, gauxc, g̶c̶p̶, g̶d̶m̶a̶,
                g̶e̶o̶m̶e̶t̶r̶i̶c̶, g̶p̶u̶_̶d̶f̶c̶c̶, i̶n̶t̶e̶g̶r̶a̶t̶o̶r̶x̶x̶, i̶p̶i̶,
                l̶i̶b̶e̶f̶p̶, m̶d̶i̶, m̶p̶2̶d̶, m̶r̶c̶c̶, ooo, o̶p̶e̶n̶f̶e̶r̶m̶i̶o̶n̶p̶s̶i̶4̶,
                pcmsolver, p̶s̶i̶4̶f̶o̶c̶k̶c̶i̶, p̶s̶i̶x̶a̶s̶, p̶y̶e̶i̶n̶s̶u̶m̶s̶, r̶e̶s̶p̶,
                s̶i̶m̶i̶n̶t̶, s̶n̶s̶m̶p̶2̶, v̶2̶r̶d̶m̶_̶c̶a̶s̶s̶c̶f̶

  ==> Input File <==

--------------------------------------------------------------------------
memory 3 GB
molecule mol {
0 1
C 0.00000000000000 1.19047391560608 0.02647299804359
C 0.00000000000000 0.73213394786395 -1.23747591226728
C 0.00000000000000 -0.73213394786395 -1.23747591226728
C 0.00000000000000 -1.19047391560608 0.02647299804359
C 0.00000000000000 0.00000000000000 0.95243693228907
C 0.00000000000000 2.60218181509645 0.50296996406869
C 0.00000000000000 -2.60218181509645 0.50296996406869
H 0.00000000000000 1.34541590438703 -2.12755984881541
H 0.00000000000000 -1.34541590438703 -2.12755984881541
H -0.87505493809699 0.00000000000000 1.61190788565291
H 0.87505493809699 0.00000000000000 1.61190788565291
H -0.87687693756831 2.81789580014911 1.12023492051008
H 0.00000000000000 3.30000876568955 -0.33392297633962
H 0.87687693756831 2.81789580014911 1.12023492051008
H 0.00000000000000 -3.30000876568955 -0.33392297633962
H -0.87687693756831 -2.81789580014911 1.12023492051008
H 0.87687693756831 -2.81789580014911 1.12023492051008
units angstrom
no_reorient
no_com
}
set basis def2-TZVP
set scf_type df
set freeze_core true
set e_convergence 8
energy('b3lyp-d3bj')
--------------------------------------------------------------------------

  Memory set to   2.794 GiB by Python driver.

Scratch directory: /Users/hoyoun/Documents/Yonsei_AX_Camp/(진짜_이게_최종)/calibration/dft_work/_scratch/R57/
   => Libint2 <=

    Primary   basis highest AM E, G, H:  7, 6, 3
    Auxiliary basis highest AM E, G, H:  7, 7, 4
    Onebody   basis highest AM E, G, H:  -, -, -
    Solid Harmonics ordering:            Gaussian

*** tstart() called on choehoyun-ui-MacBookAir.local
*** at Sun Aug  9 16:23:05 2026

   => Loading Basis Set <=

    Name: DEF2-TZVP
    Role: ORBITAL
    Keyword: BASIS
    atoms 1-7  entry C          line   123 file /Users/hoyoun/micromamba/envs/psi4env/share/psi4/basis/def2-tzvp.gbs 
    atoms 8-17 entry H          line    15 file /Users/hoyoun/micromamba/envs/psi4env/share/psi4/basis/def2-tzvp.gbs 

   => B3LYP-D3(BJ): Empirical Dispersion <=

    Grimme's -D3 (BJ-damping) Dispersion Correction
    Grimme S.; Ehrlich S.; Goerigk L. (2011), J. Comput. Chem., 32: 1456

        s6 =       1.000000
        s8 =       1.988900
        a1 =       0.398100
        a2 =       4.421100


         ---------------------------------------------------------
                                   SCF
               by Justin Turney, Rob Parrish, Andy Simmonett
                          and Daniel G. A. Smith
                              RKS Reference
                        8 Threads,   2861 MiB Core
         ---------------------------------------------------------

  ==> Geometry <==

    Molecular point group: c2v
    Full point group: C2v

    Geometry (in Angstrom), charge = 0, multiplicity = 1:

       Center              X                  Y                   Z               Mass       
    ------------   -----------------  -----------------  -----------------  -----------------
         C           -0.000000000000     1.190473915606     0.026472998044    12.000000000000
         C           -0.000000000000     0.732133947864    -1.237475912267    12.000000000000
         C            0.000000000000    -0.732133947864    -1.237475912267    12.000000000000
         C            0.000000000000    -1.190473915606     0.026472998044    12.000000000000
         C            0.000000000000     0.000000000000     0.952436932289    12.000000000000
         C           -0.000000000000     2.602181815096     0.502969964069    12.000000000000
         C            0.000000000000    -2.602181815096     0.502969964069    12.000000000000
         H           -0.000000000000     1.345415904387    -2.127559848815     1.007825032230
         H            0.000000000000    -1.345415904387    -2.127559848815     1.007825032230
         H           -0.875054938097    -0.000000000000     1.611907885653     1.007825032230
         H            0.875054938097     0.000000000000     1.611907885653     1.007825032230
         H           -0.876876937568     2.817895800149     1.120234920510     1.007825032230
         H           -0.000000000000     3.300008765690    -0.333922976340     1.007825032230
         H            0.876876937568     2.817895800149     1.120234920510     1.007825032230
         H            0.000000000000    -3.300008765690    -0.333922976340     1.007825032230
         H           -0.876876937568    -2.817895800149     1.120234920510     1.007825032230
         H            0.876876937568    -2.817895800149     1.120234920510     1.007825032230

  Running in c2v symmetry.

  Rotational constants: A =      0.21608  B =      0.06206  C =      0.04953 [cm^-1]
  Rotational constants: A =   6478.04154  B =   1860.45045  C =   1484.78767 [MHz]
  Nuclear repulsion =  283.309317405075888

  Charge       = 0
  Multiplicity = 1
  Electrons    = 52
  Nalpha       = 26
  Nbeta        = 26

  ==> Algorithm <==

  SCF Algorithm Type is DF.
  DIIS enabled.
  MOM disabled.
  Fractional occupation disabled.
  Guess Type is SAD.
  Energy threshold   = 1.00e-08
  Density threshold  = 1.00e-06
  Integral threshold = 1.00e-12

  ==> Primary Basis <==

  Basis Set: DEF2-TZVP
    Blend: DEF2-TZVP
    Number of shells: 117
    Number of basis functions: 277
    Number of Cartesian functions: 312
    Spherical Harmonics?: true
    Max angular momentum: 3

  ==> DFT Potential <==

   => LibXC <=

    Version 7.1.2
    S. Lehtola, C. Steigemann, M. J. T. Oliveira, and M. A. L. Marques,  SoftwareX 7, 1–5 (2018) (10.1016/j.softx.2017.11.002)

   => Composite Functional: B3LYP-D3BJ2B <= 

    B3LYP-d3bj2b Hyb-GGA Exchange-Correlation Functional

    P. J. Stephens, F. J. Devlin, C. F. Chabalowski, and M. J. Frisch,  J. Phys. Chem. 98, 11623 (1994) (10.1021/j100096a001)

    Deriv               =              1
    GGA                 =           TRUE
    Meta                =          FALSE

    Exchange Hybrid     =           TRUE
    MP2 Hybrid          =          FALSE

   => Exchange Functionals <=

    0.0800   Slater exchange
    0.7200         Becke 88

   => Exact (HF) Exchange <=

    0.2000               HF 

   => Correlation Functionals <=

    0.1900   Vosko, Wilk & Nusair (VWN5_RPA)
    0.8100   Lee, Yang & Parr

   => LibXC Density Thresholds  <==

    XC_HYB_GGA_XC_B3LYP:  1.00E-15 

   => Molecular Quadrature <=

    Radial Scheme          =       TREUTLER
    Pruning Scheme         =           NONE
    Nuclear Scheme         =       TREUTLER

    Blocking Scheme        =         OCTREE
    BS radius alpha        =              1
    Pruning alpha          =              1
    Radial Points          =             75
    Spherical Points       =            302
    Total Points           =         359512
    Total Blocks           =           2671
    Max Points             =            256
    Max Functions          =            265
    Weights Tolerance      =       1.00E-15

   => Loading Basis Set <=

    Name: (DEF2-TZVP AUX)
    Role: JKFIT
    Keyword: DF_BASIS_SCF
    atoms 1-7  entry C          line   198 file /Users/hoyoun/micromamba/envs/psi4env/share/psi4/basis/def2-universal-jkfit.gbs 
    atoms 8-17 entry H          line    18 file /Users/hoyoun/micromamba/envs/psi4env/share/psi4/basis/def2-universal-jkfit.gbs 

  ==> Integral Setup <==

  DFHelper Memory: AOs need 0.408 GiB; user supplied 0.408 GiB. 
  SCF_SUBTYPE=INCORE selected. In-core MEM_DF algorithm will be used.
  Using in-core AOs.

  ==> MemDFJK: Density-Fitted J/K Matrices <==

    J tasked:                   Yes
    K tasked:                   Yes
    wK tasked:                   No
    OpenMP threads:               8
    Memory [MiB]:               417
    Algorithm:                 Core
    Schwarz Cutoff:           1E-12
    Mask sparsity (%):       4.6684
    Fitting Condition:        1E-10

   => Auxiliary Basis Set <=

  Basis Set: (DEF2-TZVP AUX)
    Blend: DEF2-UNIVERSAL-JKFIT
    Number of shells: 235
    Number of basis functions: 705
    Number of Cartesian functions: 823
    Spherical Harmonics?: true
    Max angular momentum: 4

  Cached 50.0% of DFT collocation blocks in 1.056 [GiB].

  Minimum eigenvalue in the overlap matrix is 6.1604037279E-05.
  Reciprocal condition number of the overlap matrix is 7.1987215911E-06.
    Using symmetric orthogonalization.

  ==> Pre-Iterations <==

  SCF Guess: Superposition of Atomic Densities via on-the-fly atomic UHF (no occupation information).

   -------------------------
    Irrep   Nso     Nmo    
   -------------------------
     A1        98      98 
     A2        42      42 
     B1        50      50 
     B2        87      87 
   -------------------------
    Total     277     277
   -------------------------

  ==> Iterations <==

                           Total Energy        Delta E     RMS |[F,P]|

   @DF-RKS iter SAD:  -272.27229638931050   -2.72272e+02   0.00000e+00 
   @DF-RKS iter   1:  -272.07083850316837    2.01458e-01   8.39329e-03 ADIIS/DIIS
   @DF-RKS iter   2:  -271.44085999839444    6.29979e-01   1.09051e-02 ADIIS/DIIS
   @DF-RKS iter   3:  -272.84918719588114   -1.40833e+00   1.39621e-03 ADIIS/DIIS
   @DF-RKS iter   4:  -272.86126758700368   -1.20804e-02   8.87123e-04 ADIIS/DIIS
   @DF-RKS iter   5:  -272.86845025782014   -7.18267e-03   2.78296e-04 ADIIS/DIIS
   @DF-RKS iter   6:  -272.86928040581381   -8.30148e-04   6.25128e-05 DIIS
   @DF-RKS iter   7:  -272.86932281983343   -4.24140e-05   8.65066e-06 DIIS
   @DF-RKS iter   8:  -272.86932343176420   -6.11931e-07   3.73015e-06 DIIS
   @DF-RKS iter   9:  -272.86932356844608   -1.36682e-07   4.44955e-07 DIIS
   @DF-RKS iter  10:  -272.86932357050966   -2.06359e-09   8.41401e-08 DIIS
  Energy and wave function converged.


  ==> Post-Iterations <==

   Electrons on quadrature grid:
      Ntotal   =   52.0000657668 ; deviation = 6.577e-05 

    Orbital Energies [Eh]
    ---------------------

    Doubly Occupied:                                                      

       1A1   -10.170896     1B2   -10.168276     2A1   -10.168230  
       2B2   -10.165615     3A1   -10.165612     4A1   -10.157051  
       3B2   -10.156718     5A1    -0.859091     4B2    -0.763603  
       6A1    -0.719898     7A1    -0.691056     5B2    -0.639427  
       8A1    -0.535841     6B2    -0.515068     9A1    -0.477056  
       1B1    -0.451042    10A1    -0.415832     7B2    -0.415565  
       1A2    -0.412601     2B1    -0.390989     8B2    -0.380829  
      11A1    -0.352868    12A1    -0.350185     9B2    -0.332226  
       3B1    -0.295454     2A2    -0.204590  

    Virtual:                                                              

       4B1    -0.017834    13A1     0.035232    10B2     0.050884  
       3A2     0.074568    14A1     0.076820    15A1     0.089342  
      11B2     0.097437     5B1     0.107021    16A1     0.118263  
       4A2     0.119942    12B2     0.135623    13B2     0.136949  
       6B1     0.144079    17A1     0.146581    18A1     0.163227  
      14B2     0.177219     7B1     0.200375     5A2     0.212253  
      19A1     0.216260    15B2     0.226720    20A1     0.242144  
      21A1     0.255643     8B1     0.270237    22A1     0.280291  
      16B2     0.282597    17B2     0.314023    23A1     0.329797  
       9B1     0.337123     6A2     0.345408    24A1     0.362967  
      18B2     0.376208     7A2     0.393031    25A1     0.401796  
      19B2     0.405436    20B2     0.408599    26A1     0.432013  
      10B1     0.439834    21B2     0.442381    27A1     0.454255  
      11B1     0.457788    22B2     0.460643     8A2     0.463316  
      23B2     0.477167    12B1     0.479080    28A1     0.479104  
      29A1     0.519973    24B2     0.528138    30A1     0.536825  
      25B2     0.553782    31A1     0.564385    13B1     0.585791  
      26B2     0.625456    32A1     0.629176     9A2     0.663868  
      33A1     0.678748    27B2     0.690353    28B2     0.709063  
      34A1     0.713844    14B1     0.731668    10A2     0.743659  
      29B2     0.764277    35A1     0.837823    30B2     0.864393  
      36A1     0.876547    15B1     0.910034    37A1     0.932322  
      11A2     0.933938    16B1     0.965807    31B2     0.973474  
      38A1     0.985839    39A1     1.023857    17B1     1.026273  
      32B2     1.038371    12A2     1.055577    40A1     1.084246  
      13A2     1.102354    41A1     1.112420    33B2     1.116536  
      34B2     1.144558    42A1     1.166967    18B1     1.193690  
      35B2     1.212169    43A1     1.254315    14A2     1.286176  
      36B2     1.300246    19B1     1.311653    44A1     1.333599  
      37B2     1.352249    15A2     1.410648    45A1     1.431058  
      20B1     1.438384    38B2     1.462720    46A1     1.464260  
      39B2     1.470412    40B2     1.527730    21B1     1.531420  
      16A2     1.533062    47A1     1.536752    17A2     1.547975  
      48A1     1.568160    22B1     1.573679    18A2     1.573700  
      23B1     1.586463    24B1     1.609378    41B2     1.617207  
      49A1     1.623575    50A1     1.686109    42B2     1.748812  
      19A2     1.761955    25B1     1.813774    43B2     1.844396  
      51A1     1.866603    44B2     1.891794    52A1     1.901146  
      53A1     1.961694    45B2     1.962081    26B1     1.983243  
      20A2     1.995782    54A1     2.011630    46B2     2.018758  
      55A1     2.059929    47B2     2.074901    21A2     2.086360  
      27B1     2.124909    56A1     2.162218    28B1     2.174123  
      48B2     2.190603    49B2     2.213803    57A1     2.218450  
      58A1     2.264909    50B2     2.337779    22A2     2.341743  
      59A1     2.349896    29B1     2.353425    23A2     2.363341  
      30B1     2.413469    51B2     2.423734    60A1     2.431023  
      61A1     2.484407    52B2     2.494554    24A2     2.509094  
      62A1     2.517783    25A2     2.523680    31B1     2.525629  
      32B1     2.533211    53B2     2.539184    63A1     2.596811  
      54B2     2.624186    33B1     2.639553    26A2     2.665210  
      64A1     2.672884    55B2     2.680711    65A1     2.696793  
      56B2     2.754528    66A1     2.789720    67A1     2.803783  
      34B1     2.864358    68A1     2.883184    57B2     2.894492  
      35B1     2.900392    58B2     2.926453    69A1     2.931967  
      36B1     2.960906    59B2     2.962209    60B2     2.971075  
      27A2     2.987806    70A1     3.004087    61B2     3.041017  
      28A2     3.041473    71A1     3.062826    37B1     3.063270  
      29A2     3.077829    62B2     3.082967    72A1     3.135781  
      38B1     3.139282    30A2     3.151412    63B2     3.164307  
      73A1     3.192612    74A1     3.217633    39B1     3.226119  
      31A2     3.236032    64B2     3.269782    75A1     3.280432  
      32A2     3.295784    40B1     3.303088    65B2     3.308433  
      41B1     3.314246    76A1     3.315878    66B2     3.349026  
      77A1     3.375037    33A2     3.393428    34A2     3.412928  
      42B1     3.419257    67B2     3.453532    78A1     3.457694  
      43B1     3.507801    35A2     3.558265    68B2     3.571843  
      79A1     3.608196    69B2     3.645360    80A1     3.669395  
      36A2     3.676484    44B1     3.708687    70B2     3.716708  
      81A1     3.755791    45B1     3.756613    37A2     3.828983  
      82A1     3.851709    71B2     3.853926    72B2     3.896906  
      83A1     3.933015    46B1     3.941726    38A2     4.004626  
      84A1     4.013166    73B2     4.042839    85A1     4.114628  
      39A2     4.165822    74B2     4.167639    47B1     4.199909  
      40A2     4.267483    75B2     4.294640    86A1     4.302464  
      87A1     4.330992    48B1     4.360976    49B1     4.390817  
      76B2     4.393809    88A1     4.396254    77B2     4.471726  
      41A2     4.478814    78B2     4.573183    50B1     4.619585  
      89A1     4.633117    90A1     4.660169    42A2     4.682058  
      79B2     4.766841    91A1     4.810407    80B2     4.915920  
      92A1     4.964181    81B2     5.045012    93A1     5.080217  
      82B2     5.123418    94A1     5.226462    83B2     5.346733  
      84B2     5.598689    95A1    22.000951    96A1    22.371496  
      85B2    22.401492    86B2    22.573306    97A1    22.632540  
      98A1    23.059868    87B2    23.187434  

    Final Occupation by Irrep:
             A1    A2    B1    B2 
    DOCC [    12,    2,    3,    9 ]
    NA   [    12,    2,    3,    9 ]
    NB   [    12,    2,    3,    9 ]

  @DF-RKS Final Energy:  -272.86932357050966

   => Energetics <=

    Nuclear Repulsion Energy =            283.3093174050758876
    One-Electron Energy =                -927.2708183966395836
    Two-Electron Energy =                 404.9444107434222246
    DFT Exchange-Correlation Energy =     -33.8271278231713382
    Empirical Dispersion Energy =          -0.0251054991968058
    VV10 Nonlocal Energy =                  0.0000000000000000
    Total Energy =                       -272.8693235705096640

Computation Completed


Properties will be evaluated at   0.000000,   0.000000,   0.000000 [a0]

Properties computed using the SCF density matrix


 Multipole Moments:

 ------------------------------------------------------------------------------------
     Multipole            Electronic (a.u.)      Nuclear  (a.u.)        Total (a.u.)
 ------------------------------------------------------------------------------------

 L = 1.  Multiply by 2.5417464519 to convert [e a0] to [Debye]
 Dipole X            :          0.0000000            0.0000000            0.0000000
 Dipole Y            :          0.0000000            0.0000000            0.0000000
 Dipole Z            :          0.2807619            0.0000302            0.2807921
 Magnitude           :                                                    0.2807921

 ------------------------------------------------------------------------------------

*** tstop() called on choehoyun-ui-MacBookAir.local at Sun Aug  9 16:23:14 2026
Module time:
	user time   =      65.02 seconds =       1.08 minutes
	system time =       1.24 seconds =       0.02 minutes
	total time  =          9 seconds =       0.15 minutes
Total time:
	user time   =      65.02 seconds =       1.08 minutes
	system time =       1.24 seconds =       0.02 minutes
	total time  =          9 seconds =       0.15 minutes

    Psi4 stopped on: Sunday, 09 August 2026 04:23PM
    Psi4 wall time for execution: 0:00:09.86

*** Psi4 exiting successfully. Buy a developer a beer!
