
    -----------------------------------------------------------------------
          Psi4: An Open-Source Ab Initio Electronic Structure Package
                               Psi4 1.11 release

                         Git: Rev {} zzzzzzz 


    D. G. A. Smith, L. A. Burns, A. C. Simmonett, R. M. Parrish,
    M. C. Schieber, R. Galvelis, P. Kraus, H. Kruse, R. Di Remigio,
    A. Alenaizan, A. M. James, S. Lehtola, J. P. Misiewicz, M. Scheurer,
    R. A. Shaw, J. B. Schriber, Y. Xie, Z. L. Glick, D. A. Sirianni,
    J. S. O'Brien, J. M. Waldrop, A. Kumar, E. G. Hohenstein,
    B. P. Pritchard, B. R. Brooks, H. F. Schaefer III, A. Yu. Sokolov,
    K. Patkowski, A. E. DePrince III, U. Bozkaya, R. A. King,
    F. A. Evangelista, J. M. Turney, T. D. Crawford, C. D. Sherrill,
    J. Chem. Phys. 152(18) 184108 (2020). https://doi.org/10.1063/5.0006002

                            Additional Code Authors
    E. T. Seidl, C. L. Janssen, E. F. Valeev, M. L. Leininger,
    J. F. Gonthier, R. M. Richard, H. R. McAlexander, M. Saitow, X. Wang,
    P. Verma, M. H. Lechner, A. Jiang, S. Behnle, A. G. Heide,
    M. F. Herbst, D. L. Poole, T. Győri, E. C. Mitchell, J. P. Pederson,
    and A. M. Wallace

             Previous Authors, Complete List of Code Contributors,
                       and Citations for Specific Modules
    https://github.com/psi4/psi4/blob/master/codemeta.json
    https://github.com/psi4/psi4/graphs/contributors
    https://psicode.org/psi4manual/master/introduction.html#citing-psifour

    -----------------------------------------------------------------------


    Psi4 started on: Sunday, 09 August 2026 02:10AM

    Process ID: 49251
    Host:       choehoyun-ui-MacBookAir.local
    PSIDATADIR: /Users/hoyoun/micromamba/envs/psi4env/share/psi4
    Memory:     500.0 MiB
    Threads:    8
    Addons:     a̶d̶c̶c̶, a̶m̶b̶i̶t̶, b̶s̶e̶, c̶c̶t̶3̶, c̶f̶o̶u̶r̶, c̶h̶e̶m̶p̶s̶2̶, c̶p̶p̶e̶, d̶d̶x̶, dftd3,
                d̶f̶t̶d̶4̶, dkh, ecpint, einsums, f̶o̶r̶t̶e̶, gauxc, g̶c̶p̶, g̶d̶m̶a̶,
                g̶e̶o̶m̶e̶t̶r̶i̶c̶, g̶p̶u̶_̶d̶f̶c̶c̶, i̶n̶t̶e̶g̶r̶a̶t̶o̶r̶x̶x̶, i̶p̶i̶,
                l̶i̶b̶e̶f̶p̶, m̶d̶i̶, m̶p̶2̶d̶, m̶r̶c̶c̶, ooo, o̶p̶e̶n̶f̶e̶r̶m̶i̶o̶n̶p̶s̶i̶4̶,
                pcmsolver, p̶s̶i̶4̶f̶o̶c̶k̶c̶i̶, p̶s̶i̶x̶a̶s̶, p̶y̶e̶i̶n̶s̶u̶m̶s̶, r̶e̶s̶p̶,
                s̶i̶m̶i̶n̶t̶, s̶n̶s̶m̶p̶2̶, v̶2̶r̶d̶m̶_̶c̶a̶s̶s̶c̶f̶

  ==> Input File <==

--------------------------------------------------------------------------
memory 3 GB
molecule mol {
0 1
N 1.93147159942981 -0.11402932960723 0.10889300785397
H 2.66426179587582 0.29831509727612 0.66722814039051
C 0.58628083131055 0.20788108647595 0.52722716608454
H -0.03393836818511 0.19587246781116 -0.36479539405088
C 0.05986272378745 -0.81042345056554 1.55165779542774
C 0.58950261148466 1.59923696271106 1.13347497365712
H 0.88986285955043 -1.06814594965074 2.20943611055542
H -0.69651166688278 -0.33403263970799 2.18151794611283
C -0.52710707166119 -2.05581753628449 0.87814273698692
O 1.53520101255387 2.00054117024983 1.81318177203386
H -0.26357669165460 -2.95872785387277 1.43191166637717
H -0.11062471807833 -2.15797318893977 -0.12497583505253
C -2.05543256975913 -2.00074192707042 0.80333589070005
H -2.47046621949502 -2.11206183231626 1.80542885460143
H -2.43099694662852 -2.84397625687561 0.22336950922887
N -2.61832421611346 -0.76043767899827 0.27772329740584
H -2.64469072325551 0.00664845250832 0.93268615434177
C -2.32847961487996 -0.29813436693097 -0.98592120386115
N -2.18226090678005 0.97422035664230 -1.16950743513272
N -2.18376534019339 -1.28440864943239 -1.92740700712808
H -2.09518648165008 1.18410894000148 -2.15922544878848
H -2.74346353482616 -2.11297390871397 -1.83336837976597
H -1.98832998664128 -0.99128262729882 -2.86723164820517
N -0.54328851300822 2.29283270318083 0.91117947763065
C -0.69712438192102 3.62790551221690 1.44868866206679
H -1.18493632859622 1.94957587651707 0.19009251692110
H -0.41928597507361 3.63464053491057 2.49960957594807
H -1.73550884326164 3.92940990288430 1.34620230660502
H -0.06292682323618 4.34767050035933 0.93085491566486
C 2.20824582765918 -0.58591209521102 -1.13468117105488
C 3.67741086550181 -0.66281144240531 -1.47639810898587
O 1.33838583867570 -0.93339025461303 -1.92895403557987
H 4.32347079607131 -0.50033237727431 -0.61735839469719
H 3.88301386743810 -1.63801832054217 -1.90886200873396
H 3.89542227305032 0.08849512306326 -2.23304939182372
units angstrom
no_reorient
no_com
}
set basis def2-TZVP
set scf_type df
set freeze_core true
set e_convergence 8
energy('b3lyp-d3bj')
--------------------------------------------------------------------------

  Memory set to   2.794 GiB by Python driver.

Scratch directory: /Users/hoyoun/Documents/Yonsei_AX_Camp/(진짜_이게_최종)/calibration/dft_work/_scratch/ARG_xci/
   => Libint2 <=

    Primary   basis highest AM E, G, H:  7, 6, 3
    Auxiliary basis highest AM E, G, H:  7, 7, 4
    Onebody   basis highest AM E, G, H:  -, -, -
    Solid Harmonics ordering:            Gaussian

*** tstart() called on choehoyun-ui-MacBookAir.local
*** at Sun Aug  9 02:10:51 2026

   => Loading Basis Set <=

    Name: DEF2-TZVP
    Role: ORBITAL
    Keyword: BASIS
    atoms 1, 16, 19-20, 24                                 entry N          line   156 file /Users/hoyoun/micromamba/envs/psi4env/share/psi4/basis/def2-tzvp.gbs 
    atoms 2, 4, 7-8, 11-12, 14-15, 17, 21-23, 26-29, 33-35 entry H          line    15 file /Users/hoyoun/micromamba/envs/psi4env/share/psi4/basis/def2-tzvp.gbs 
    atoms 3, 5-6, 9, 13, 18, 25, 30-31                     entry C          line   123 file /Users/hoyoun/micromamba/envs/psi4env/share/psi4/basis/def2-tzvp.gbs 
    atoms 10, 32                                           entry O          line   189 file /Users/hoyoun/micromamba/envs/psi4env/share/psi4/basis/def2-tzvp.gbs 

   => B3LYP-D3(BJ): Empirical Dispersion <=

    Grimme's -D3 (BJ-damping) Dispersion Correction
    Grimme S.; Ehrlich S.; Goerigk L. (2011), J. Comput. Chem., 32: 1456

        s6 =       1.000000
        s8 =       1.988900
        a1 =       0.398100
        a2 =       4.421100


         ---------------------------------------------------------
                                   SCF
               by Justin Turney, Rob Parrish, Andy Simmonett
                          and Daniel G. A. Smith
                              RKS Reference
                        8 Threads,   2861 MiB Core
         ---------------------------------------------------------

  ==> Geometry <==

    Molecular point group: c1
    Full point group: C1

    Geometry (in Angstrom), charge = 0, multiplicity = 1:

       Center              X                  Y                   Z               Mass       
    ------------   -----------------  -----------------  -----------------  -----------------
         N            1.931471599430    -0.114029329607     0.108893007854    14.003074004430
         H            2.664261795876     0.298315097276     0.667228140391     1.007825032230
         C            0.586280831311     0.207881086476     0.527227166085    12.000000000000
         H           -0.033938368185     0.195872467811    -0.364795394051     1.007825032230
         C            0.059862723787    -0.810423450566     1.551657795428    12.000000000000
         C            0.589502611485     1.599236962711     1.133474973657    12.000000000000
         H            0.889862859550    -1.068145949651     2.209436110555     1.007825032230
         H           -0.696511666883    -0.334032639708     2.181517946113     1.007825032230
         C           -0.527107071661    -2.055817536284     0.878142736987    12.000000000000
         O            1.535201012554     2.000541170250     1.813181772034    15.994914619570
         H           -0.263576691655    -2.958727853873     1.431911666377     1.007825032230
         H           -0.110624718078    -2.157973188940    -0.124975835053     1.007825032230
         C           -2.055432569759    -2.000741927070     0.803335890700    12.000000000000
         H           -2.470466219495    -2.112061832316     1.805428854601     1.007825032230
         H           -2.430996946629    -2.843976256876     0.223369509229     1.007825032230
         N           -2.618324216113    -0.760437678998     0.277723297406    14.003074004430
         H           -2.644690723256     0.006648452508     0.932686154342     1.007825032230
         C           -2.328479614880    -0.298134366931    -0.985921203861    12.000000000000
         N           -2.182260906780     0.974220356642    -1.169507435133    14.003074004430
         N           -2.183765340193    -1.284408649432    -1.927407007128    14.003074004430
         H           -2.095186481650     1.184108940001    -2.159225448788     1.007825032230
         H           -2.743463534826    -2.112973908714    -1.833368379766     1.007825032230
         H           -1.988329986641    -0.991282627299    -2.867231648205     1.007825032230
         N           -0.543288513008     2.292832703181     0.911179477631    14.003074004430
         C           -0.697124381921     3.627905512217     1.448688662067    12.000000000000
         H           -1.184936328596     1.949575876517     0.190092516921     1.007825032230
         H           -0.419285975074     3.634640534911     2.499609575948     1.007825032230
         H           -1.735508843262     3.929409902884     1.346202306605     1.007825032230
         H           -0.062926823236     4.347670500359     0.930854915665     1.007825032230
         C            2.208245827659    -0.585912095211    -1.134681171055    12.000000000000
         C            3.677410865502    -0.662811442405    -1.476398108986    12.000000000000
         O            1.338385838676    -0.933390254613    -1.928954035580    15.994914619570
         H            4.323470796071    -0.500332377274    -0.617358394697     1.007825032230
         H            3.883013867438    -1.638018320542    -1.908862008734     1.007825032230
         H            3.895422273050     0.088495123063    -2.233049391824     1.007825032230

  Running in c1 symmetry.

  Rotational constants: A =      0.01743  B =      0.01558  C =      0.01107 [cm^-1]
  Rotational constants: A =    522.61591  B =    467.06784  C =    331.90338 [MHz]
  Nuclear repulsion = 1228.093739178316127

  Charge       = 0
  Multiplicity = 1
  Electrons    = 124
  Nalpha       = 62
  Nbeta        = 62

  ==> Algorithm <==

  SCF Algorithm Type is DF.
  DIIS enabled.
  MOM disabled.
  Fractional occupation disabled.
  Guess Type is SAD.
  Energy threshold   = 1.00e-08
  Density threshold  = 1.00e-06
  Integral threshold = 1.00e-12

  ==> Primary Basis <==

  Basis Set: DEF2-TZVP
    Blend: DEF2-TZVP
    Number of shells: 252
    Number of basis functions: 610
    Number of Cartesian functions: 690
    Spherical Harmonics?: true
    Max angular momentum: 3

  ==> DFT Potential <==

   => LibXC <=

    Version 7.1.2
    S. Lehtola, C. Steigemann, M. J. T. Oliveira, and M. A. L. Marques,  SoftwareX 7, 1–5 (2018) (10.1016/j.softx.2017.11.002)

   => Composite Functional: B3LYP-D3BJ2B <= 

    B3LYP-d3bj2b Hyb-GGA Exchange-Correlation Functional

    P. J. Stephens, F. J. Devlin, C. F. Chabalowski, and M. J. Frisch,  J. Phys. Chem. 98, 11623 (1994) (10.1021/j100096a001)

    Deriv               =              1
    GGA                 =           TRUE
    Meta                =          FALSE

    Exchange Hybrid     =           TRUE
    MP2 Hybrid          =          FALSE

   => Exchange Functionals <=

    0.0800   Slater exchange
    0.7200         Becke 88

   => Exact (HF) Exchange <=

    0.2000               HF 

   => Correlation Functionals <=

    0.1900   Vosko, Wilk & Nusair (VWN5_RPA)
    0.8100   Lee, Yang & Parr

   => LibXC Density Thresholds  <==

    XC_HYB_GGA_XC_B3LYP:  1.00E-15 

   => Molecular Quadrature <=

    Radial Scheme          =       TREUTLER
    Pruning Scheme         =           NONE
    Nuclear Scheme         =       TREUTLER

    Blocking Scheme        =         OCTREE
    BS radius alpha        =              1
    Pruning alpha          =              1
    Radial Points          =             75
    Spherical Points       =            302
    Total Points           =         721346
    Total Blocks           =           5132
    Max Points             =            256
    Max Functions          =            491
    Weights Tolerance      =       1.00E-15

   => Loading Basis Set <=

    Name: (DEF2-TZVP AUX)
    Role: JKFIT
    Keyword: DF_BASIS_SCF
    atoms 1, 16, 19-20, 24                                 entry N          line   258 file /Users/hoyoun/micromamba/envs/psi4env/share/psi4/basis/def2-universal-jkfit.gbs 
    atoms 2, 4, 7-8, 11-12, 14-15, 17, 21-23, 26-29, 33-35 entry H          line    18 file /Users/hoyoun/micromamba/envs/psi4env/share/psi4/basis/def2-universal-jkfit.gbs 
    atoms 3, 5-6, 9, 13, 18, 25, 30-31                     entry C          line   198 file /Users/hoyoun/micromamba/envs/psi4env/share/psi4/basis/def2-universal-jkfit.gbs 
    atoms 10, 32                                           entry O          line   318 file /Users/hoyoun/micromamba/envs/psi4env/share/psi4/basis/def2-universal-jkfit.gbs 

  ==> Integral Setup <==

  ==> DiskDFJK: Density-Fitted J/K Matrices <==

    J tasked:                  Yes
    K tasked:                  Yes
    wK tasked:                  No
    OpenMP threads:              8
    Integrals threads:           8
    Memory [MiB]:             1910
    Algorithm:                Disk
    Integral Cache:           NONE
    Schwarz Cutoff:          1E-12
    Fitting Condition:       1E-10

   => Auxiliary Basis Set <=

  Basis Set: (DEF2-TZVP AUX)
    Blend: DEF2-UNIVERSAL-JKFIT
    Number of shells: 514
    Number of basis functions: 1556
    Number of Cartesian functions: 1832
    Spherical Harmonics?: true
    Max angular momentum: 4

  Cached 3.6% of DFT collocation blocks in 0.223 [GiB].

  Minimum eigenvalue in the overlap matrix is 6.8942494307E-05.
  Reciprocal condition number of the overlap matrix is 6.2014098939E-06.
    Using symmetric orthogonalization.

  ==> Pre-Iterations <==

  SCF Guess: Superposition of Atomic Densities via on-the-fly atomic UHF (no occupation information).

   -------------------------
    Irrep   Nso     Nmo    
   -------------------------
     A        610     610 
   -------------------------
    Total     610     610
   -------------------------

  ==> Iterations <==

                           Total Energy        Delta E     RMS |[F,P]|

   @DF-RKS iter SAD:  -778.14547714087814   -7.78145e+02   0.00000e+00 
   @DF-RKS iter   1:  -777.56733253354264    5.78145e-01   3.00414e-03 DIIS/ADIIS
   @DF-RKS iter   2:  -776.52168400814492    1.04565e+00   3.80814e-03 DIIS/ADIIS
   @DF-RKS iter   3:  -778.99449199880553   -2.47281e+00   4.93804e-04 DIIS/ADIIS
   @DF-RKS iter   4:  -779.01894937303098   -2.44574e-02   3.09607e-04 DIIS/ADIIS
   @DF-RKS iter   5:  -779.03112599240353   -1.21766e-02   1.16188e-04 DIIS/ADIIS
   @DF-RKS iter   6:  -779.03302513474205   -1.89914e-03   2.41166e-05 DIIS
   @DF-RKS iter   7:  -779.03310300317037   -7.78684e-05   8.50944e-06 DIIS
   @DF-RKS iter   8:  -779.03311304598947   -1.00428e-05   3.07522e-06 DIIS
   @DF-RKS iter   9:  -779.03311437208856   -1.32610e-06   1.14270e-06 DIIS
   @DF-RKS iter  10:  -779.03311455620360   -1.84115e-07   3.04290e-07 DIIS
   @DF-RKS iter  11:  -779.03311456813333   -1.19297e-08   1.03488e-07 DIIS
   @DF-RKS iter  12:  -779.03311456931090   -1.17757e-09   5.24379e-08 DIIS
  Energy and wave function converged.


  ==> Post-Iterations <==

   Electrons on quadrature grid:
      Ntotal   =  124.0000099189 ; deviation = 9.919e-06 

    Orbital Energies [Eh]
    ---------------------

    Doubly Occupied:                                                      

       1A    -19.082706     2A    -19.080831     3A    -14.339675  
       4A    -14.335906     5A    -14.332294     6A    -14.323673  
       7A    -14.279900     8A    -10.280094     9A    -10.266715  
      10A    -10.257308    11A    -10.215184    12A    -10.204210  
      13A    -10.191299    14A    -10.174122    15A    -10.170653  
      16A    -10.169254    17A     -1.032407    18A     -1.023820  
      19A     -0.996573    20A     -0.922098    21A     -0.912903  
      22A     -0.902891    23A     -0.860278    24A     -0.800856  
      25A     -0.756618    26A     -0.725979    27A     -0.701872  
      28A     -0.658528    29A     -0.626538    30A     -0.593470  
      31A     -0.585556    32A     -0.571922    33A     -0.552599  
      34A     -0.534519    35A     -0.522669    36A     -0.496281  
      37A     -0.487074    38A     -0.473550    39A     -0.464147  
      40A     -0.456846    41A     -0.449453    42A     -0.443667  
      43A     -0.440500    44A     -0.426319    45A     -0.413561  
      46A     -0.411164    47A     -0.404909    48A     -0.396734  
      49A     -0.391550    50A     -0.388367    51A     -0.369678  
      52A     -0.358745    53A     -0.353422    54A     -0.343924  
      55A     -0.335489    56A     -0.293301    57A     -0.274922  
      58A     -0.264602    59A     -0.257286    60A     -0.252059  
      61A     -0.243944    62A     -0.242314  

    Virtual:                                                              

      63A      0.011511    64A      0.018304    65A      0.023299  
      66A      0.029457    67A      0.038014    68A      0.041579  
      69A      0.042799    70A      0.060741    71A      0.068117  
      72A      0.079815    73A      0.089443    74A      0.093078  
      75A      0.098558    76A      0.108195    77A      0.117389  
      78A      0.122748    79A      0.124610    80A      0.126055  
      81A      0.127270    82A      0.135001    83A      0.139472  
      84A      0.146863    85A      0.150078    86A      0.164359  
      87A      0.167516    88A      0.182367    89A      0.182893  
      90A      0.192924    91A      0.196222    92A      0.207042  
      93A      0.207468    94A      0.213030    95A      0.216774  
      96A      0.224355    97A      0.234264    98A      0.241106  
      99A      0.243079   100A      0.247723   101A      0.258409  
     102A      0.266118   103A      0.280632   104A      0.282798  
     105A      0.285119   106A      0.298289   107A      0.306711  
     108A      0.314602   109A      0.319081   110A      0.325111  
     111A      0.327688   112A      0.340788   113A      0.346250  
     114A      0.349374   115A      0.358288   116A      0.360354  
     117A      0.367601   118A      0.374908   119A      0.382426  
     120A      0.391228   121A      0.394617   122A      0.399847  
     123A      0.401333   124A      0.409233   125A      0.415351  
     126A      0.419207   127A      0.425529   128A      0.431518  
     129A      0.434088   130A      0.437665   131A      0.442068  
     132A      0.453672   133A      0.456168   134A      0.458861  
     135A      0.460276   136A      0.466521   137A      0.468108  
     138A      0.475108   139A      0.482072   140A      0.488410  
     141A      0.490235   142A      0.492639   143A      0.501249  
     144A      0.504552   145A      0.506823   146A      0.514896  
     147A      0.529450   148A      0.535762   149A      0.537248  
     150A      0.544322   151A      0.549143   152A      0.556214  
     153A      0.560094   154A      0.567821   155A      0.573731  
     156A      0.577426   157A      0.593041   158A      0.601696  
     159A      0.612069   160A      0.614774   161A      0.625708  
     162A      0.634457   163A      0.650000   164A      0.654179  
     165A      0.659907   166A      0.679242   167A      0.683795  
     168A      0.685176   169A      0.699170   170A      0.706980  
     171A      0.717038   172A      0.721743   173A      0.724876  
     174A      0.732121   175A      0.755159   176A      0.760777  
     177A      0.788182   178A      0.798774   179A      0.809402  
     180A      0.814103   181A      0.830110   182A      0.833267  
     183A      0.844311   184A      0.846654   185A      0.855380  
     186A      0.872175   187A      0.884024   188A      0.891905  
     189A      0.909556   190A      0.918016   191A      0.923757  
     192A      0.930222   193A      0.936044   194A      0.944182  
     195A      0.951595   196A      0.965368   197A      0.979229  
     198A      0.986234   199A      0.997719   200A      1.015126  
     201A      1.032414   202A      1.041497   203A      1.049301  
     204A      1.057743   205A      1.058625   206A      1.067596  
     207A      1.069776   208A      1.089317   209A      1.098037  
     210A      1.119484   211A      1.128189   212A      1.138326  
     213A      1.151843   214A      1.163638   215A      1.169195  
     216A      1.189362   217A      1.202061   218A      1.208542  
     219A      1.216226   220A      1.231995   221A      1.237863  
     222A      1.249950   223A      1.271302   224A      1.275707  
     225A      1.289369   226A      1.306748   227A      1.325389  
     228A      1.333432   229A      1.341605   230A      1.357869  
     231A      1.365341   232A      1.394792   233A      1.400487  
     234A      1.404576   235A      1.415757   236A      1.430924  
     237A      1.446369   238A      1.456781   239A      1.470633  
     240A      1.473186   241A      1.482281   242A      1.496477  
     243A      1.499835   244A      1.518062   245A      1.522524  
     246A      1.528845   247A      1.530699   248A      1.532996  
     249A      1.541527   250A      1.548353   251A      1.558016  
     252A      1.566077   253A      1.570601   254A      1.578363  
     255A      1.582482   256A      1.588477   257A      1.595439  
     258A      1.600966   259A      1.614202   260A      1.623106  
     261A      1.628953   262A      1.631940   263A      1.645426  
     264A      1.650247   265A      1.662299   266A      1.669973  
     267A      1.683535   268A      1.695420   269A      1.710015  
     270A      1.716889   271A      1.721051   272A      1.732659  
     273A      1.746490   274A      1.756934   275A      1.767035  
     276A      1.769514   277A      1.777018   278A      1.803839  
     279A      1.807642   280A      1.819096   281A      1.837254  
     282A      1.839680   283A      1.854763   284A      1.877334  
     285A      1.884572   286A      1.891286   287A      1.900717  
     288A      1.916950   289A      1.924048   290A      1.931120  
     291A      1.940380   292A      1.949191   293A      1.960204  
     294A      1.965970   295A      1.975223   296A      1.984024  
     297A      1.991354   298A      2.003506   299A      2.018829  
     300A      2.025368   301A      2.033740   302A      2.046078  
     303A      2.049910   304A      2.052153   305A      2.063292  
     306A      2.075667   307A      2.089788   308A      2.100723  
     309A      2.110700   310A      2.115993   311A      2.130982  
     312A      2.142915   313A      2.169906   314A      2.180619  
     315A      2.186114   316A      2.205820   317A      2.213453  
     318A      2.219988   319A      2.232655   320A      2.241127  
     321A      2.248521   322A      2.274741   323A      2.282380  
     324A      2.294338   325A      2.300830   326A      2.307535  
     327A      2.325038   328A      2.333437   329A      2.343635  
     330A      2.350641   331A      2.359135   332A      2.368515  
     333A      2.379776   334A      2.385289   335A      2.396515  
     336A      2.406798   337A      2.415293   338A      2.425993  
     339A      2.439005   340A      2.449612   341A      2.459211  
     342A      2.474663   343A      2.487905   344A      2.505357  
     345A      2.510293   346A      2.527586   347A      2.530021  
     348A      2.534215   349A      2.552556   350A      2.565410  
     351A      2.570275   352A      2.578282   353A      2.580543  
     354A      2.595996   355A      2.614287   356A      2.623273  
     357A      2.627007   358A      2.641886   359A      2.647028  
     360A      2.658480   361A      2.671649   362A      2.682539  
     363A      2.689992   364A      2.694317   365A      2.717342  
     366A      2.739021   367A      2.749102   368A      2.757914  
     369A      2.769652   370A      2.773922   371A      2.790176  
     372A      2.800232   373A      2.809828   374A      2.820384  
     375A      2.831364   376A      2.841710   377A      2.849786  
     378A      2.863631   379A      2.884585   380A      2.890958  
     381A      2.899566   382A      2.915250   383A      2.938771  
     384A      2.952203   385A      2.953305   386A      2.967857  
     387A      2.974513   388A      2.980952   389A      2.987595  
     390A      2.996647   391A      3.005837   392A      3.021944  
     393A      3.023076   394A      3.032626   395A      3.052591  
     396A      3.058816   397A      3.068235   398A      3.072189  
     399A      3.085250   400A      3.097332   401A      3.105690  
     402A      3.118259   403A      3.135391   404A      3.137071  
     405A      3.140828   406A      3.151335   407A      3.157434  
     408A      3.165237   409A      3.177340   410A      3.191056  
     411A      3.195868   412A      3.202425   413A      3.206058  
     414A      3.210177   415A      3.221675   416A      3.230343  
     417A      3.237714   418A      3.252351   419A      3.257985  
     420A      3.270318   421A      3.280111   422A      3.286987  
     423A      3.301894   424A      3.314417   425A      3.316172  
     426A      3.320871   427A      3.327060   428A      3.343183  
     429A      3.358334   430A      3.364398   431A      3.380126  
     432A      3.391782   433A      3.403608   434A      3.407810  
     435A      3.416945   436A      3.419481   437A      3.427434  
     438A      3.441153   439A      3.453107   440A      3.467227  
     441A      3.477323   442A      3.486375   443A      3.501573  
     444A      3.507800   445A      3.521269   446A      3.540312  
     447A      3.543634   448A      3.573414   449A      3.584377  
     450A      3.585233   451A      3.594495   452A      3.608562  
     453A      3.619358   454A      3.641013   455A      3.669174  
     456A      3.686770   457A      3.700745   458A      3.710948  
     459A      3.725412   460A      3.744572   461A      3.755355  
     462A      3.778432   463A      3.785572   464A      3.796075  
     465A      3.804452   466A      3.815128   467A      3.820447  
     468A      3.844163   469A      3.857992   470A      3.870545  
     471A      3.891129   472A      3.902541   473A      3.906252  
     474A      3.936323   475A      3.937574   476A      3.979495  
     477A      3.987993   478A      4.009969   479A      4.012677  
     480A      4.026199   481A      4.055755   482A      4.078459  
     483A      4.105892   484A      4.132399   485A      4.154166  
     486A      4.177511   487A      4.187478   488A      4.196308  
     489A      4.210419   490A      4.235024   491A      4.260980  
     492A      4.278842   493A      4.308464   494A      4.319905  
     495A      4.342594   496A      4.351500   497A      4.359993  
     498A      4.371134   499A      4.392277   500A      4.395448  
     501A      4.414873   502A      4.426610   503A      4.445534  
     504A      4.469166   505A      4.497586   506A      4.503268  
     507A      4.527723   508A      4.566880   509A      4.591268  
     510A      4.601354   511A      4.611677   512A      4.644444  
     513A      4.683694   514A      4.706317   515A      4.727332  
     516A      4.732959   517A      4.760545   518A      4.767541  
     519A      4.768112   520A      4.795378   521A      4.826639  
     522A      4.834499   523A      4.844445   524A      4.850167  
     525A      4.872143   526A      4.884497   527A      4.901081  
     528A      4.949023   529A      4.951373   530A      4.990940  
     531A      5.005937   532A      5.017582   533A      5.054333  
     534A      5.057149   535A      5.067677   536A      5.092916  
     537A      5.100630   538A      5.115064   539A      5.124744  
     540A      5.154709   541A      5.168052   542A      5.177555  
     543A      5.183176   544A      5.195819   545A      5.202259  
     546A      5.219408   547A      5.223583   548A      5.249294  
     549A      5.259214   550A      5.281890   551A      5.301762  
     552A      5.307552   553A      5.311781   554A      5.315284  
     555A      5.334748   556A      5.371563   557A      5.397687  
     558A      5.426009   559A      5.437492   560A      5.461788  
     561A      5.496786   562A      5.514768   563A      5.536000  
     564A      5.540785   565A      5.594913   566A      5.628898  
     567A      5.638553   568A      5.692823   569A      5.700147  
     570A      5.729057   571A      5.815141   572A      5.834382  
     573A      5.862064   574A      5.935756   575A      5.962720  
     576A      5.985300   577A      6.011932   578A      6.123250  
     579A      6.167961   580A      6.291255   581A      6.343720  
     582A      6.353405   583A      6.439022   584A      6.450946  
     585A      6.572855   586A      6.580814   587A      6.719763  
     588A      6.743726   589A      6.853665   590A      6.864210  
     591A      7.087099   592A      7.100547   593A      7.114395  
     594A      7.131896   595A     22.325623   596A     22.411169  
     597A     22.521895   598A     22.542370   599A     22.567364  
     600A     22.812612   601A     23.233332   602A     23.312276  
     603A     23.400949   604A     31.956932   605A     32.088195  
     606A     32.440349   607A     32.504243   608A     32.581622  
     609A     43.932801   610A     43.976568  

    Final Occupation by Irrep:
              A 
    DOCC [    62 ]
    NA   [    62 ]
    NB   [    62 ]

  @DF-RKS Final Energy:  -779.03311456931090

   => Energetics <=

    Nuclear Repulsion Energy =           1228.0937391783161274
    One-Electron Energy =               -3499.0819123685919294
    Two-Electron Energy =                1579.4230885286092416
    DFT Exchange-Correlation Energy =     -87.4019948426794002
    Empirical Dispersion Energy =          -0.0660350649647251
    VV10 Nonlocal Energy =                  0.0000000000000000
    Total Energy =                       -779.0331145693108965

Computation Completed


Properties will be evaluated at   0.000000,   0.000000,   0.000000 [a0]

Properties computed using the SCF density matrix


 Multipole Moments:

 ------------------------------------------------------------------------------------
     Multipole            Electronic (a.u.)      Nuclear  (a.u.)        Total (a.u.)
 ------------------------------------------------------------------------------------

 L = 1.  Multiply by 2.5417464519 to convert [e a0] to [Debye]
 Dipole X            :         18.6167460          -19.5207447           -0.9039986
 Dipole Y            :        -18.5848525           17.6476941           -0.9371584
 Dipole Z            :        -10.2685848            9.9449160           -0.3236688
 Magnitude           :                                                    1.3417305

 ------------------------------------------------------------------------------------

*** tstop() called on choehoyun-ui-MacBookAir.local at Sun Aug  9 02:12:05 2026
Module time:
	user time   =     498.61 seconds =       8.31 minutes
	system time =       8.21 seconds =       0.14 minutes
	total time  =         74 seconds =       1.23 minutes
Total time:
	user time   =     498.61 seconds =       8.31 minutes
	system time =       8.21 seconds =       0.14 minutes
	total time  =         74 seconds =       1.23 minutes

    Psi4 stopped on: Sunday, 09 August 2026 02:12AM
    Psi4 wall time for execution: 0:01:14.36

*** Psi4 exiting successfully. Buy a developer a beer!
