
    -----------------------------------------------------------------------
          Psi4: An Open-Source Ab Initio Electronic Structure Package
                               Psi4 1.11 release

                         Git: Rev {} zzzzzzz 


    D. G. A. Smith, L. A. Burns, A. C. Simmonett, R. M. Parrish,
    M. C. Schieber, R. Galvelis, P. Kraus, H. Kruse, R. Di Remigio,
    A. Alenaizan, A. M. James, S. Lehtola, J. P. Misiewicz, M. Scheurer,
    R. A. Shaw, J. B. Schriber, Y. Xie, Z. L. Glick, D. A. Sirianni,
    J. S. O'Brien, J. M. Waldrop, A. Kumar, E. G. Hohenstein,
    B. P. Pritchard, B. R. Brooks, H. F. Schaefer III, A. Yu. Sokolov,
    K. Patkowski, A. E. DePrince III, U. Bozkaya, R. A. King,
    F. A. Evangelista, J. M. Turney, T. D. Crawford, C. D. Sherrill,
    J. Chem. Phys. 152(18) 184108 (2020). https://doi.org/10.1063/5.0006002

                            Additional Code Authors
    E. T. Seidl, C. L. Janssen, E. F. Valeev, M. L. Leininger,
    J. F. Gonthier, R. M. Richard, H. R. McAlexander, M. Saitow, X. Wang,
    P. Verma, M. H. Lechner, A. Jiang, S. Behnle, A. G. Heide,
    M. F. Herbst, D. L. Poole, T. Győri, E. C. Mitchell, J. P. Pederson,
    and A. M. Wallace

             Previous Authors, Complete List of Code Contributors,
                       and Citations for Specific Modules
    https://github.com/psi4/psi4/blob/master/codemeta.json
    https://github.com/psi4/psi4/graphs/contributors
    https://psicode.org/psi4manual/master/introduction.html#citing-psifour

    -----------------------------------------------------------------------


    Psi4 started on: Sunday, 09 August 2026 01:12AM

    Process ID: 41353
    Host:       choehoyun-ui-MacBookAir.local
    PSIDATADIR: /Users/hoyoun/micromamba/envs/psi4env/share/psi4
    Memory:     500.0 MiB
    Threads:    1
    Addons:     a̶d̶c̶c̶, a̶m̶b̶i̶t̶, b̶s̶e̶, c̶c̶t̶3̶, c̶f̶o̶u̶r̶, c̶h̶e̶m̶p̶s̶2̶, c̶p̶p̶e̶, d̶d̶x̶, dftd3,
                d̶f̶t̶d̶4̶, dkh, ecpint, einsums, f̶o̶r̶t̶e̶, gauxc, g̶c̶p̶, g̶d̶m̶a̶,
                g̶e̶o̶m̶e̶t̶r̶i̶c̶, g̶p̶u̶_̶d̶f̶c̶c̶, i̶n̶t̶e̶g̶r̶a̶t̶o̶r̶x̶x̶, i̶p̶i̶,
                l̶i̶b̶e̶f̶p̶, m̶d̶i̶, m̶p̶2̶d̶, m̶r̶c̶c̶, ooo, o̶p̶e̶n̶f̶e̶r̶m̶i̶o̶n̶p̶s̶i̶4̶,
                pcmsolver, p̶s̶i̶4̶f̶o̶c̶k̶c̶i̶, p̶s̶i̶x̶a̶s̶, p̶y̶e̶i̶n̶s̶u̶m̶s̶, r̶e̶s̶p̶,
                s̶i̶m̶i̶n̶t̶, s̶n̶s̶m̶p̶2̶, v̶2̶r̶d̶m̶_̶c̶a̶s̶s̶c̶f̶

  ==> Input File <==

--------------------------------------------------------------------------
memory 6 GB
molecule mol {
0 1
O 0.00000000000000 0.00000000000000 1.49089050020692
C -1.16802047197143 0.13486346195500 0.66626401020839
C -0.73340713792027 -0.22516106270344 -0.75581833682650
C 0.73340713792027 0.22516106270344 -0.75581833682650
C 1.16802047197143 -0.13486346195500 0.66626401020839
H -1.94898214132612 -0.52028687097841 1.05862880843368
H -1.52882604934885 1.16957385814473 0.71831640419929
H -1.33838638851057 0.26863758519206 -1.51749607049634
H -0.79938574205075 -1.30461008600876 -0.91534006562198
H 1.33838638851057 -0.26863758519206 -1.51749607049634
H 0.79938574205075 1.30461008600876 -0.91534006562198
H 1.52882604934885 -1.16957385814473 0.71831640419929
H 1.94898214132612 0.52028687097841 1.05862880843368
units angstrom
no_reorient
no_com
}
set basis def2-TZVP
set scf_type df
set freeze_core true
energy('b3lyp-d3bj')
--------------------------------------------------------------------------

  Memory set to   5.588 GiB by Python driver.

Scratch directory: /tmp/
   => Libint2 <=

    Primary   basis highest AM E, G, H:  7, 6, 3
    Auxiliary basis highest AM E, G, H:  7, 7, 4
    Onebody   basis highest AM E, G, H:  -, -, -
    Solid Harmonics ordering:            Gaussian

*** tstart() called on choehoyun-ui-MacBookAir.local
*** at Sun Aug  9 01:12:49 2026

   => Loading Basis Set <=

    Name: DEF2-TZVP
    Role: ORBITAL
    Keyword: BASIS
    atoms 1    entry O          line   189 file /Users/hoyoun/micromamba/envs/psi4env/share/psi4/basis/def2-tzvp.gbs 
    atoms 2-5  entry C          line   123 file /Users/hoyoun/micromamba/envs/psi4env/share/psi4/basis/def2-tzvp.gbs 
    atoms 6-13 entry H          line    15 file /Users/hoyoun/micromamba/envs/psi4env/share/psi4/basis/def2-tzvp.gbs 

   => B3LYP-D3(BJ): Empirical Dispersion <=

    Grimme's -D3 (BJ-damping) Dispersion Correction
    Grimme S.; Ehrlich S.; Goerigk L. (2011), J. Comput. Chem., 32: 1456

        s6 =       1.000000
        s8 =       1.988900
        a1 =       0.398100
        a2 =       4.421100


         ---------------------------------------------------------
                                   SCF
               by Justin Turney, Rob Parrish, Andy Simmonett
                          and Daniel G. A. Smith
                              RKS Reference
                        1 Threads,   5722 MiB Core
         ---------------------------------------------------------

  ==> Geometry <==

    Molecular point group: c2
    Full point group: C2

    Geometry (in Angstrom), charge = 0, multiplicity = 1:

       Center              X                  Y                   Z               Mass       
    ------------   -----------------  -----------------  -----------------  -----------------
         O            0.000000000000     0.000000000000     1.490890500207    15.994914619570
         C           -1.168020471971     0.134863461955     0.666264010208    12.000000000000
         C           -0.733407137920    -0.225161062703    -0.755818336827    12.000000000000
         C            0.733407137920     0.225161062703    -0.755818336827    12.000000000000
         C            1.168020471971    -0.134863461955     0.666264010208    12.000000000000
         H           -1.948982141326    -0.520286870978     1.058628808434     1.007825032230
         H           -1.528826049349     1.169573858145     0.718316404199     1.007825032230
         H           -1.338386388511     0.268637585192    -1.517496070496     1.007825032230
         H           -0.799385742051    -1.304610086009    -0.915340065622     1.007825032230
         H            1.338386388511    -0.268637585192    -1.517496070496     1.007825032230
         H            0.799385742051     1.304610086009    -0.915340065622     1.007825032230
         H            1.528826049349    -1.169573858145     0.718316404199     1.007825032230
         H            1.948982141326     0.520286870978     1.058628808434     1.007825032230

  Running in c2 symmetry.

  Rotational constants: A =      0.23593  B =      0.21591  C =      0.12726 [cm^-1]
  Rotational constants: A =   7073.15076  B =   6472.70900  C =   3815.20790 [MHz]
  Nuclear repulsion =  190.363269175164248

  Charge       = 0
  Multiplicity = 1
  Electrons    = 40
  Nalpha       = 20
  Nbeta        = 20

  ==> Algorithm <==

  SCF Algorithm Type is DF.
  DIIS enabled.
  MOM disabled.
  Fractional occupation disabled.
  Guess Type is SAD.
  Energy threshold   = 1.00e-06
  Density threshold  = 1.00e-06
  Integral threshold = 1.00e-12

  ==> Primary Basis <==

  Basis Set: DEF2-TZVP
    Blend: DEF2-TZVP
    Number of shells: 87
    Number of basis functions: 203
    Number of Cartesian functions: 228
    Spherical Harmonics?: true
    Max angular momentum: 3

  ==> DFT Potential <==

   => LibXC <=

    Version 7.1.2
    S. Lehtola, C. Steigemann, M. J. T. Oliveira, and M. A. L. Marques,  SoftwareX 7, 1–5 (2018) (10.1016/j.softx.2017.11.002)

   => Composite Functional: B3LYP-D3BJ2B <= 

    B3LYP-d3bj2b Hyb-GGA Exchange-Correlation Functional

    P. J. Stephens, F. J. Devlin, C. F. Chabalowski, and M. J. Frisch,  J. Phys. Chem. 98, 11623 (1994) (10.1021/j100096a001)

    Deriv               =              1
    GGA                 =           TRUE
    Meta                =          FALSE

    Exchange Hybrid     =           TRUE
    MP2 Hybrid          =          FALSE

   => Exchange Functionals <=

    0.0800   Slater exchange
    0.7200         Becke 88

   => Exact (HF) Exchange <=

    0.2000               HF 

   => Correlation Functionals <=

    0.1900   Vosko, Wilk & Nusair (VWN5_RPA)
    0.8100   Lee, Yang & Parr

   => LibXC Density Thresholds  <==

    XC_HYB_GGA_XC_B3LYP:  1.00E-15 

   => Molecular Quadrature <=

    Radial Scheme          =       TREUTLER
    Pruning Scheme         =           NONE
    Nuclear Scheme         =       TREUTLER

    Blocking Scheme        =         OCTREE
    BS radius alpha        =              1
    Pruning alpha          =              1
    Radial Points          =             75
    Spherical Points       =            302
    Total Points           =         275984
    Total Blocks           =           2062
    Max Points             =            256
    Max Functions          =            199
    Weights Tolerance      =       1.00E-15

   => Loading Basis Set <=

    Name: (DEF2-TZVP AUX)
    Role: JKFIT
    Keyword: DF_BASIS_SCF
    atoms 1    entry O          line   318 file /Users/hoyoun/micromamba/envs/psi4env/share/psi4/basis/def2-universal-jkfit.gbs 
    atoms 2-5  entry C          line   198 file /Users/hoyoun/micromamba/envs/psi4env/share/psi4/basis/def2-universal-jkfit.gbs 
    atoms 6-13 entry H          line    18 file /Users/hoyoun/micromamba/envs/psi4env/share/psi4/basis/def2-universal-jkfit.gbs 

  ==> Integral Setup <==

  DFHelper Memory: AOs need 0.170 GiB; user supplied 2.840 GiB. 
  SCF_SUBTYPE=INCORE selected. In-core MEM_DF algorithm will be used.
  Using in-core AOs.

  ==> MemDFJK: Density-Fitted J/K Matrices <==

    J tasked:                   Yes
    K tasked:                   Yes
    wK tasked:                   No
    OpenMP threads:               1
    Memory [MiB]:              2908
    Algorithm:                 Core
    Schwarz Cutoff:           1E-12
    Mask sparsity (%):       0.4756
    Fitting Condition:        1E-10

   => Auxiliary Basis Set <=

  Basis Set: (DEF2-TZVP AUX)
    Blend: DEF2-UNIVERSAL-JKFIT
    Number of shells: 173
    Number of basis functions: 521
    Number of Cartesian functions: 609
    Spherical Harmonics?: true
    Max angular momentum: 4

  Cached 100.0% of DFT collocation blocks in 1.351 [GiB].

  Minimum eigenvalue in the overlap matrix is 3.5469620597E-04.
  Reciprocal condition number of the overlap matrix is 4.3119193852E-05.
    Using symmetric orthogonalization.

  ==> Pre-Iterations <==

  SCF Guess: Superposition of Atomic Densities via on-the-fly atomic UHF (no occupation information).

   -------------------------
    Irrep   Nso     Nmo    
   -------------------------
     A        103     103 
     B        100     100 
   -------------------------
    Total     203     203
   -------------------------

  ==> Iterations <==

                           Total Energy        Delta E     RMS |[F,P]|

   @DF-RKS iter SAD:  -232.09576721342958   -2.32096e+02   0.00000e+00 
   @DF-RKS iter   1:  -232.07435833787324    2.14089e-02   6.83376e-03 DIIS/ADIIS
   @DF-RKS iter   2:  -231.60151634953559    4.72842e-01   9.54005e-03 DIIS/ADIIS
   @DF-RKS iter   3:  -232.55360239210918   -9.52086e-01   8.12781e-04 DIIS/ADIIS
   @DF-RKS iter   4:  -232.55645380424556   -2.85141e-03   5.90411e-04 DIIS/ADIIS
   @DF-RKS iter   5:  -232.55878372110425   -2.32992e-03   1.69865e-04 DIIS/ADIIS
   @DF-RKS iter   6:  -232.55899708360954   -2.13363e-04   1.00420e-05 DIIS
   @DF-RKS iter   7:  -232.55899815774833   -1.07414e-06   1.02424e-06 DIIS
   @DF-RKS iter   8:  -232.55899816438634   -6.63800e-09   7.44643e-07 DIIS
  Energy and wave function converged.


  ==> Post-Iterations <==

   Electrons on quadrature grid:
      Ntotal   =   39.9999565932 ; deviation = -4.341e-05 

    Orbital Energies [Eh]
    ---------------------

    Doubly Occupied:                                                      

       1A    -19.117395     1B    -10.212426     2A    -10.212407  
       3A    -10.174934     2B    -10.174725     4A     -1.024943  
       5A     -0.786766     3B     -0.736882     4B     -0.597929  
       6A     -0.592529     5B     -0.503636     7A     -0.492573  
       6B     -0.430741     8A     -0.430189     7B     -0.405609  
       9A     -0.359741     8B     -0.355192    10A     -0.338980  
      11A     -0.318018     9B     -0.249942  

    Virtual:                                                              

      12A      0.030835    10B      0.061791    11B      0.069754  
      13A      0.083799    14A      0.094335    12B      0.096246  
      15A      0.111309    16A      0.121083    13B      0.138333  
      14B      0.150387    17A      0.171305    15B      0.174280  
      16B      0.205932    18A      0.211230    17B      0.217416  
      19A      0.220661    18B      0.282980    20A      0.305040  
      19B      0.322128    21A      0.362643    22A      0.370491  
      20B      0.371221    23A      0.404157    24A      0.408460  
      21B      0.410984    22B      0.413700    23B      0.423200  
      24B      0.427272    25A      0.429867    25B      0.442280  
      26A      0.452544    27A      0.454827    26B      0.486940  
      28A      0.498382    29A      0.556309    27B      0.564543  
      30A      0.596137    28B      0.612428    29B      0.654122  
      31A      0.700946    30B      0.743763    32A      0.823338  
      31B      0.828834    32B      0.850472    33A      0.852160  
      34A      0.905629    33B      0.910501    34B      0.917562  
      35A      0.932427    36A      0.997404    37A      1.032716  
      35B      1.034915    36B      1.076551    38A      1.079609  
      39A      1.102562    37B      1.117749    40A      1.134520  
      38B      1.156294    39B      1.201057    41A      1.238035  
      40B      1.277290    42A      1.444107    41B      1.490456  
      43A      1.502979    44A      1.521378    42B      1.531212  
      45A      1.553695    43B      1.565424    44B      1.585168  
      46A      1.599453    45B      1.635696    47A      1.644876  
      46B      1.689663    48A      1.754519    47B      1.763095  
      48B      1.786501    49A      1.790287    50A      1.837250  
      51A      1.869672    52A      1.891997    49B      1.908349  
      50B      1.958599    53A      1.988931    51B      2.010277  
      54A      2.014930    52B      2.045334    55A      2.105428  
      53B      2.128043    56A      2.223566    54B      2.229429  
      55B      2.270438    57A      2.279584    56B      2.303946  
      58A      2.366437    57B      2.367005    59A      2.395368  
      60A      2.424900    58B      2.469742    61A      2.475164  
      62A      2.503938    59B      2.519960    60B      2.558304  
      63A      2.570325    61B      2.608964    64A      2.611622  
      62B      2.662101    63B      2.705954    65A      2.717911  
      66A      2.720441    64B      2.759093    65B      2.773999  
      67A      2.796294    68A      2.859885    66B      2.862713  
      69A      2.874082    67B      2.925258    68B      2.999386  
      70A      3.018860    71A      3.040440    69B      3.055587  
      70B      3.105823    72A      3.120037    71B      3.140726  
      73A      3.144945    74A      3.199335    72B      3.212639  
      75A      3.243993    73B      3.270446    76A      3.295455  
      74B      3.337516    77A      3.340757    75B      3.345400  
      78A      3.374318    79A      3.417491    80A      3.452904  
      76B      3.468141    77B      3.480347    78B      3.562465  
      81A      3.591703    79B      3.602855    80B      3.611684  
      82A      3.697476    83A      3.753461    81B      3.768386  
      84A      3.846711    82B      3.909412    85A      3.935889  
      83B      3.984331    86A      4.005705    84B      4.014926  
      87A      4.058815    85B      4.122081    86B      4.158625  
      88A      4.224482    89A      4.309448    87B      4.310529  
      90A      4.326499    91A      4.471321    88B      4.471724  
      89B      4.507518    92A      4.620521    93A      4.731471  
      90B      4.740035    91B      4.797521    94A      4.832430  
      92B      4.866451    93B      5.403396    95A      5.419335  
      94B      5.766670    96A      5.799465    95B      5.816759  
      96B      6.096972    97A      6.099294    97B      6.719091  
      98A      6.795443    99A      6.870425    98B      7.154919  
     100A      7.196705   101A     22.233468    99B     22.432382  
     102A     22.444972   100B     22.497104   103A     44.057335  

    Final Occupation by Irrep:
              A     B 
    DOCC [    11,    9 ]
    NA   [    11,    9 ]
    NB   [    11,    9 ]

  @DF-RKS Final Energy:  -232.55899816438634

   => Energetics <=

    Nuclear Repulsion Energy =            190.3632691751642483
    One-Electron Energy =                -691.3818603558747782
    Two-Electron Energy =                 295.4703122248765794
    DFT Exchange-Correlation Energy =     -26.9952316609269687
    Empirical Dispersion Energy =          -0.0154875476253849
    VV10 Nonlocal Energy =                  0.0000000000000000
    Total Energy =                       -232.5589981643863098

Computation Completed


Properties will be evaluated at   0.000000,   0.000000,   0.000000 [a0]

Properties computed using the SCF density matrix


 Multipole Moments:

 ------------------------------------------------------------------------------------
     Multipole            Electronic (a.u.)      Nuclear  (a.u.)        Total (a.u.)
 ------------------------------------------------------------------------------------

 L = 1.  Multiply by 2.5417464519 to convert [e a0] to [Debye]
 Dipole X            :          0.0000000           -0.0000000           -0.0000000
 Dipole Y            :          0.0000000           -0.0000000           -0.0000000
 Dipole Z            :        -18.7499249           18.0292916           -0.7206333
 Magnitude           :                                                    0.7206333

 ------------------------------------------------------------------------------------

*** tstop() called on choehoyun-ui-MacBookAir.local at Sun Aug  9 01:13:43 2026
Module time:
	user time   =      16.58 seconds =       0.28 minutes
	system time =       7.18 seconds =       0.12 minutes
	total time  =         54 seconds =       0.90 minutes
Total time:
	user time   =      16.58 seconds =       0.28 minutes
	system time =       7.18 seconds =       0.12 minutes
	total time  =         54 seconds =       0.90 minutes

    Psi4 stopped on: Sunday, 09 August 2026 01:13AM
    Psi4 wall time for execution: 0:00:53.48

*** Psi4 exiting successfully. Buy a developer a beer!
