
    -----------------------------------------------------------------------
          Psi4: An Open-Source Ab Initio Electronic Structure Package
                               Psi4 1.11 release

                         Git: Rev {} zzzzzzz 


    D. G. A. Smith, L. A. Burns, A. C. Simmonett, R. M. Parrish,
    M. C. Schieber, R. Galvelis, P. Kraus, H. Kruse, R. Di Remigio,
    A. Alenaizan, A. M. James, S. Lehtola, J. P. Misiewicz, M. Scheurer,
    R. A. Shaw, J. B. Schriber, Y. Xie, Z. L. Glick, D. A. Sirianni,
    J. S. O'Brien, J. M. Waldrop, A. Kumar, E. G. Hohenstein,
    B. P. Pritchard, B. R. Brooks, H. F. Schaefer III, A. Yu. Sokolov,
    K. Patkowski, A. E. DePrince III, U. Bozkaya, R. A. King,
    F. A. Evangelista, J. M. Turney, T. D. Crawford, C. D. Sherrill,
    J. Chem. Phys. 152(18) 184108 (2020). https://doi.org/10.1063/5.0006002

                            Additional Code Authors
    E. T. Seidl, C. L. Janssen, E. F. Valeev, M. L. Leininger,
    J. F. Gonthier, R. M. Richard, H. R. McAlexander, M. Saitow, X. Wang,
    P. Verma, M. H. Lechner, A. Jiang, S. Behnle, A. G. Heide,
    M. F. Herbst, D. L. Poole, T. Győri, E. C. Mitchell, J. P. Pederson,
    and A. M. Wallace

             Previous Authors, Complete List of Code Contributors,
                       and Citations for Specific Modules
    https://github.com/psi4/psi4/blob/master/codemeta.json
    https://github.com/psi4/psi4/graphs/contributors
    https://psicode.org/psi4manual/master/introduction.html#citing-psifour

    -----------------------------------------------------------------------


    Psi4 started on: Sunday, 09 August 2026 02:48AM

    Process ID: 51112
    Host:       choehoyun-ui-MacBookAir.local
    PSIDATADIR: /Users/hoyoun/micromamba/envs/psi4env/share/psi4
    Memory:     500.0 MiB
    Threads:    8
    Addons:     a̶d̶c̶c̶, a̶m̶b̶i̶t̶, b̶s̶e̶, c̶c̶t̶3̶, c̶f̶o̶u̶r̶, c̶h̶e̶m̶p̶s̶2̶, c̶p̶p̶e̶, d̶d̶x̶, dftd3,
                d̶f̶t̶d̶4̶, dkh, ecpint, einsums, f̶o̶r̶t̶e̶, gauxc, g̶c̶p̶, g̶d̶m̶a̶,
                g̶e̶o̶m̶e̶t̶r̶i̶c̶, g̶p̶u̶_̶d̶f̶c̶c̶, i̶n̶t̶e̶g̶r̶a̶t̶o̶r̶x̶x̶, i̶p̶i̶,
                l̶i̶b̶e̶f̶p̶, m̶d̶i̶, m̶p̶2̶d̶, m̶r̶c̶c̶, ooo, o̶p̶e̶n̶f̶e̶r̶m̶i̶o̶n̶p̶s̶i̶4̶,
                pcmsolver, p̶s̶i̶4̶f̶o̶c̶k̶c̶i̶, p̶s̶i̶x̶a̶s̶, p̶y̶e̶i̶n̶s̶u̶m̶s̶, r̶e̶s̶p̶,
                s̶i̶m̶i̶n̶t̶, s̶n̶s̶m̶p̶2̶, v̶2̶r̶d̶m̶_̶c̶a̶s̶s̶c̶f̶

  ==> Input File <==

--------------------------------------------------------------------------
memory 3 GB
molecule mol {
0 1
N -0.24119282649095 0.84100475624844 0.12033171721527
H -1.07053922769995 0.36894311436967 -0.21962481183913
C 0.57381883815452 0.14546677024018 1.10590797067073
H 0.91317052662568 0.90086790991519 1.81907482941503
C -0.23903855801554 -0.91153247667990 1.84169393552318
H -0.98834877440425 -0.41804612067066 2.46384030110841
H 0.44703387043697 -1.43293351113713 2.50715707567952
C -0.90891943675096 -1.95548699547647 0.94631125812783
H -0.26544673098889 -2.19821226945039 0.10311312914985
H -1.08607877374772 -2.87017364238650 1.51091452108898
S -2.51836945324253 -1.36469926111130 0.32918130425316
C -2.83865185430711 -2.68167476008931 -0.86387270058743
H -3.79784808925435 -2.47538522348182 -1.33152881287208
H -2.88989774462428 -3.64314047153996 -0.35768842763330
H -2.06353658768648 -2.70684625218971 -1.62622800616090
C 1.83504487864128 -0.46794809740616 0.46980062000326
O 2.05209391379156 -1.67794386709389 0.47546462958599
N 2.65966251826137 0.45687318348396 -0.06263420412300
H 2.36112001962585 1.42568370492830 -0.00574116011312
C -0.00049656205993 2.11585915944745 -0.25554520112730
O 0.98902261650935 2.74807322354652 0.12499142248835
C -1.02081458408297 2.72377210280054 -1.18338271858906
H -1.38093745592513 3.64811254405855 -0.73817484071858
H -1.86186973764628 2.06408598149123 -1.38099219481268
H -0.53135631079197 2.97906522836271 -2.12066780118162
C 3.88207028544706 0.09429049098188 -0.74404977017446
H 4.73172386943952 0.61964352549896 -0.31261258606321
H 4.02384557942030 -0.97517955423266 -0.62357766430807
H 3.82659481144950 0.32862778868278 -1.80636781319605
units angstrom
no_reorient
no_com
}
set basis def2-TZVP
set scf_type df
set freeze_core true
set e_convergence 8
energy('b3lyp-d3bj')
--------------------------------------------------------------------------

  Memory set to   2.794 GiB by Python driver.

Scratch directory: /Users/hoyoun/Documents/Yonsei_AX_Camp/(진짜_이게_최종)/calibration/dft_work/_scratch/MET_xag/
   => Libint2 <=

    Primary   basis highest AM E, G, H:  7, 6, 3
    Auxiliary basis highest AM E, G, H:  7, 7, 4
    Onebody   basis highest AM E, G, H:  -, -, -
    Solid Harmonics ordering:            Gaussian

*** tstart() called on choehoyun-ui-MacBookAir.local
*** at Sun Aug  9 02:48:43 2026

   => Loading Basis Set <=

    Name: DEF2-TZVP
    Role: ORBITAL
    Keyword: BASIS
    atoms 1, 18                                    entry N          line   156 file /Users/hoyoun/micromamba/envs/psi4env/share/psi4/basis/def2-tzvp.gbs 
    atoms 2, 4, 6-7, 9-10, 13-15, 19, 23-25, 27-29 entry H          line    15 file /Users/hoyoun/micromamba/envs/psi4env/share/psi4/basis/def2-tzvp.gbs 
    atoms 3, 5, 8, 12, 16, 20, 22, 26              entry C          line   123 file /Users/hoyoun/micromamba/envs/psi4env/share/psi4/basis/def2-tzvp.gbs 
    atoms 11                                       entry S          line   492 file /Users/hoyoun/micromamba/envs/psi4env/share/psi4/basis/def2-tzvp.gbs 
    atoms 17, 21                                   entry O          line   189 file /Users/hoyoun/micromamba/envs/psi4env/share/psi4/basis/def2-tzvp.gbs 

   => B3LYP-D3(BJ): Empirical Dispersion <=

    Grimme's -D3 (BJ-damping) Dispersion Correction
    Grimme S.; Ehrlich S.; Goerigk L. (2011), J. Comput. Chem., 32: 1456

        s6 =       1.000000
        s8 =       1.988900
        a1 =       0.398100
        a2 =       4.421100


         ---------------------------------------------------------
                                   SCF
               by Justin Turney, Rob Parrish, Andy Simmonett
                          and Daniel G. A. Smith
                              RKS Reference
                        8 Threads,   2861 MiB Core
         ---------------------------------------------------------

  ==> Geometry <==

    Molecular point group: c1
    Full point group: C1

    Geometry (in Angstrom), charge = 0, multiplicity = 1:

       Center              X                  Y                   Z               Mass       
    ------------   -----------------  -----------------  -----------------  -----------------
         N           -0.241192826491     0.841004756248     0.120331717215    14.003074004430
         H           -1.070539227700     0.368943114370    -0.219624811839     1.007825032230
         C            0.573818838155     0.145466770240     1.105907970671    12.000000000000
         H            0.913170526626     0.900867909915     1.819074829415     1.007825032230
         C           -0.239038558016    -0.911532476680     1.841693935523    12.000000000000
         H           -0.988348774404    -0.418046120671     2.463840301108     1.007825032230
         H            0.447033870437    -1.432933511137     2.507157075680     1.007825032230
         C           -0.908919436751    -1.955486995476     0.946311258128    12.000000000000
         H           -0.265446730989    -2.198212269450     0.103113129150     1.007825032230
         H           -1.086078773748    -2.870173642386     1.510914521089     1.007825032230
         S           -2.518369453243    -1.364699261111     0.329181304253    31.972071174400
         C           -2.838651854307    -2.681674760089    -0.863872700587    12.000000000000
         H           -3.797848089254    -2.475385223482    -1.331528812872     1.007825032230
         H           -2.889897744624    -3.643140471540    -0.357688427633     1.007825032230
         H           -2.063536587686    -2.706846252190    -1.626228006161     1.007825032230
         C            1.835044878641    -0.467948097406     0.469800620003    12.000000000000
         O            2.052093913792    -1.677943867094     0.475464629586    15.994914619570
         N            2.659662518261     0.456873183484    -0.062634204123    14.003074004430
         H            2.361120019626     1.425683704928    -0.005741160113     1.007825032230
         C           -0.000496562060     2.115859159447    -0.255545201127    12.000000000000
         O            0.989022616509     2.748073223547     0.124991422488    15.994914619570
         C           -1.020814584083     2.723772102801    -1.183382718589    12.000000000000
         H           -1.380937455925     3.648112544059    -0.738174840719     1.007825032230
         H           -1.861869737646     2.064085981491    -1.380992194813     1.007825032230
         H           -0.531356310792     2.979065228363    -2.120667801182     1.007825032230
         C            3.882070285447     0.094290490982    -0.744049770174    12.000000000000
         H            4.731723869440     0.619643525499    -0.312612586063     1.007825032230
         H            4.023845579420    -0.975179554233    -0.623577664308     1.007825032230
         H            3.826594811450     0.328627788683    -1.806367813196     1.007825032230

  Running in c1 symmetry.

  Rotational constants: A =      0.02750  B =      0.01562  C =      0.01164 [cm^-1]
  Rotational constants: A =    824.39247  B =    468.42435  C =    349.04556 [MHz]
  Nuclear repulsion =  965.376102613389889

  Charge       = 0
  Multiplicity = 1
  Electrons    = 110
  Nalpha       = 55
  Nbeta        = 55

  ==> Algorithm <==

  SCF Algorithm Type is DF.
  DIIS enabled.
  MOM disabled.
  Fractional occupation disabled.
  Guess Type is SAD.
  Energy threshold   = 1.00e-08
  Density threshold  = 1.00e-06
  Integral threshold = 1.00e-12

  ==> Primary Basis <==

  Basis Set: DEF2-TZVP
    Blend: DEF2-TZVP
    Number of shells: 209
    Number of basis functions: 505
    Number of Cartesian functions: 570
    Spherical Harmonics?: true
    Max angular momentum: 3

  ==> DFT Potential <==

   => LibXC <=

    Version 7.1.2
    S. Lehtola, C. Steigemann, M. J. T. Oliveira, and M. A. L. Marques,  SoftwareX 7, 1–5 (2018) (10.1016/j.softx.2017.11.002)

   => Composite Functional: B3LYP-D3BJ2B <= 

    B3LYP-d3bj2b Hyb-GGA Exchange-Correlation Functional

    P. J. Stephens, F. J. Devlin, C. F. Chabalowski, and M. J. Frisch,  J. Phys. Chem. 98, 11623 (1994) (10.1021/j100096a001)

    Deriv               =              1
    GGA                 =           TRUE
    Meta                =          FALSE

    Exchange Hybrid     =           TRUE
    MP2 Hybrid          =          FALSE

   => Exchange Functionals <=

    0.0800   Slater exchange
    0.7200         Becke 88

   => Exact (HF) Exchange <=

    0.2000               HF 

   => Correlation Functionals <=

    0.1900   Vosko, Wilk & Nusair (VWN5_RPA)
    0.8100   Lee, Yang & Parr

   => LibXC Density Thresholds  <==

    XC_HYB_GGA_XC_B3LYP:  1.00E-15 

   => Molecular Quadrature <=

    Radial Scheme          =       TREUTLER
    Pruning Scheme         =           NONE
    Nuclear Scheme         =       TREUTLER

    Blocking Scheme        =         OCTREE
    BS radius alpha        =              1
    Pruning alpha          =              1
    Radial Points          =             75
    Spherical Points       =            302
    Total Points           =         603721
    Total Blocks           =           4335
    Max Points             =            256
    Max Functions          =            420
    Weights Tolerance      =       1.00E-15

   => Loading Basis Set <=

    Name: (DEF2-TZVP AUX)
    Role: JKFIT
    Keyword: DF_BASIS_SCF
    atoms 1, 18                                    entry N          line   258 file /Users/hoyoun/micromamba/envs/psi4env/share/psi4/basis/def2-universal-jkfit.gbs 
    atoms 2, 4, 6-7, 9-10, 13-15, 19, 23-25, 27-29 entry H          line    18 file /Users/hoyoun/micromamba/envs/psi4env/share/psi4/basis/def2-universal-jkfit.gbs 
    atoms 3, 5, 8, 12, 16, 20, 22, 26              entry C          line   198 file /Users/hoyoun/micromamba/envs/psi4env/share/psi4/basis/def2-universal-jkfit.gbs 
    atoms 11                                       entry S          line   903 file /Users/hoyoun/micromamba/envs/psi4env/share/psi4/basis/def2-universal-jkfit.gbs 
    atoms 17, 21                                   entry O          line   318 file /Users/hoyoun/micromamba/envs/psi4env/share/psi4/basis/def2-universal-jkfit.gbs 

  ==> Integral Setup <==

  ==> DiskDFJK: Density-Fitted J/K Matrices <==

    J tasked:                  Yes
    K tasked:                  Yes
    wK tasked:                  No
    OpenMP threads:              8
    Integrals threads:           8
    Memory [MiB]:             1141
    Algorithm:                Disk
    Integral Cache:           NONE
    Schwarz Cutoff:          1E-12
    Fitting Condition:       1E-10

   => Auxiliary Basis Set <=

  Basis Set: (DEF2-TZVP AUX)
    Blend: DEF2-UNIVERSAL-JKFIT
    Number of shells: 434
    Number of basis functions: 1324
    Number of Cartesian functions: 1559
    Spherical Harmonics?: true
    Max angular momentum: 4

  Cached 20.0% of DFT collocation blocks in 0.903 [GiB].

  Minimum eigenvalue in the overlap matrix is 6.9148948265E-05.
  Reciprocal condition number of the overlap matrix is 6.7680180852E-06.
    Using symmetric orthogonalization.

  ==> Pre-Iterations <==

  SCF Guess: Superposition of Atomic Densities via on-the-fly atomic UHF (no occupation information).

   -------------------------
    Irrep   Nso     Nmo    
   -------------------------
     A        505     505 
   -------------------------
    Total     505     505
   -------------------------

  ==> Iterations <==

                           Total Energy        Delta E     RMS |[F,P]|

   @DF-RKS iter SAD:  -972.11288635765015   -9.72113e+02   0.00000e+00 
   @DF-RKS iter   1:  -971.83483246948413    2.78054e-01   3.19947e-03 DIIS/ADIIS
   @DF-RKS iter   2:  -971.15335446680695    6.81478e-01   3.87255e-03 DIIS/ADIIS
   @DF-RKS iter   3:  -972.94313902915496   -1.78978e+00   6.39452e-04 DIIS/ADIIS
   @DF-RKS iter   4:  -972.97353287946862   -3.03939e-02   3.33067e-04 DIIS/ADIIS
   @DF-RKS iter   5:  -972.98319966743759   -9.66679e-03   1.30792e-04 DIIS/ADIIS
   @DF-RKS iter   6:  -972.98483296592315   -1.63330e-03   3.21186e-05 DIIS
   @DF-RKS iter   7:  -972.98493688674034   -1.03921e-04   7.75875e-06 DIIS
   @DF-RKS iter   8:  -972.98494283896389   -5.95222e-06   2.94781e-06 DIIS
   @DF-RKS iter   9:  -972.98494359906442   -7.60101e-07   1.07809e-06 DIIS
   @DF-RKS iter  10:  -972.98494369552918   -9.64648e-08   4.19845e-07 DIIS
   @DF-RKS iter  11:  -972.98494371311210   -1.75829e-08   1.02914e-07 DIIS
   @DF-RKS iter  12:  -972.98494371423158   -1.11947e-09   3.60010e-08 DIIS
  Energy and wave function converged.


  ==> Post-Iterations <==

   Electrons on quadrature grid:
      Ntotal   =  109.9999468106 ; deviation = -5.319e-05 

    Orbital Energies [Eh]
    ---------------------

    Doubly Occupied:                                                      

       1A    -88.858041     2A    -19.099141     3A    -19.088273  
       4A    -14.348064     5A    -14.330278     6A    -10.281716  
       7A    -10.266248     8A    -10.224785     9A    -10.203479  
      10A    -10.202399    11A    -10.194812    12A    -10.186928  
      13A    -10.181260    14A     -7.935186    15A     -5.898475  
      16A     -5.895153    17A     -5.889209    18A     -1.047720  
      19A     -1.032408    20A     -0.939633    21A     -0.917950  
      22A     -0.828033    23A     -0.790008    24A     -0.749816  
      25A     -0.726031    26A     -0.693979    27A     -0.639864  
      28A     -0.605426    29A     -0.594439    30A     -0.576621  
      31A     -0.539533    32A     -0.501571    33A     -0.492833  
      34A     -0.472163    35A     -0.459082    36A     -0.455215  
      37A     -0.451222    38A     -0.447488    39A     -0.438578  
      40A     -0.433909    41A     -0.416953    42A     -0.415161  
      43A     -0.409802    44A     -0.391056    45A     -0.386304  
      46A     -0.371866    47A     -0.368586    48A     -0.364259  
      49A     -0.352876    50A     -0.326101    51A     -0.289393  
      52A     -0.271594    53A     -0.255819    54A     -0.249312  
      55A     -0.237120  

    Virtual:                                                              

      56A     -0.000340    57A      0.009176    58A      0.019875  
      59A      0.029184    60A      0.042277    61A      0.048258  
      62A      0.057762    63A      0.066423    64A      0.077482  
      65A      0.083199    66A      0.088136    67A      0.096460  
      68A      0.101356    69A      0.107928    70A      0.114698  
      71A      0.119582    72A      0.121297    73A      0.127765  
      74A      0.129232    75A      0.133900    76A      0.143073  
      77A      0.146877    78A      0.166682    79A      0.168966  
      80A      0.185513    81A      0.192178    82A      0.196249  
      83A      0.199459    84A      0.200908    85A      0.206918  
      86A      0.211709    87A      0.225158    88A      0.230211  
      89A      0.239835    90A      0.251472    91A      0.261522  
      92A      0.267744    93A      0.273783    94A      0.283840  
      95A      0.290516    96A      0.296972    97A      0.303406  
      98A      0.311903    99A      0.312621   100A      0.320513  
     101A      0.336665   102A      0.361727   103A      0.365795  
     104A      0.371262   105A      0.376053   106A      0.381574  
     107A      0.388134   108A      0.392957   109A      0.394671  
     110A      0.398455   111A      0.407501   112A      0.413563  
     113A      0.417312   114A      0.421817   115A      0.429843  
     116A      0.433433   117A      0.435535   118A      0.446174  
     119A      0.451159   120A      0.456175   121A      0.457559  
     122A      0.462199   123A      0.465410   124A      0.471754  
     125A      0.477232   126A      0.481291   127A      0.486780  
     128A      0.495006   129A      0.502639   130A      0.513158  
     131A      0.518202   132A      0.533344   133A      0.541077  
     134A      0.549825   135A      0.554880   136A      0.557108  
     137A      0.560803   138A      0.576260   139A      0.582435  
     140A      0.603612   141A      0.615980   142A      0.624270  
     143A      0.632279   144A      0.645775   145A      0.648588  
     146A      0.667452   147A      0.679935   148A      0.683462  
     149A      0.710186   150A      0.716347   151A      0.726619  
     152A      0.729333   153A      0.747656   154A      0.760028  
     155A      0.774704   156A      0.788006   157A      0.797563  
     158A      0.805329   159A      0.811555   160A      0.822366  
     161A      0.840757   162A      0.852509   163A      0.865904  
     164A      0.867360   165A      0.888375   166A      0.903521  
     167A      0.906094   168A      0.912039   169A      0.928325  
     170A      0.934686   171A      0.947848   172A      0.958988  
     173A      0.976111   174A      0.981371   175A      0.988405  
     176A      1.001225   177A      1.007122   178A      1.024319  
     179A      1.037439   180A      1.048155   181A      1.054978  
     182A      1.078134   183A      1.089916   184A      1.100101  
     185A      1.125701   186A      1.135309   187A      1.144754  
     188A      1.146833   189A      1.183873   190A      1.198053  
     191A      1.211511   192A      1.229447   193A      1.235353  
     194A      1.266540   195A      1.294243   196A      1.304527  
     197A      1.332399   198A      1.363782   199A      1.368107  
     200A      1.397064   201A      1.417280   202A      1.422433  
     203A      1.435398   204A      1.444871   205A      1.457741  
     206A      1.469963   207A      1.471183   208A      1.475676  
     209A      1.490388   210A      1.493030   211A      1.500567  
     212A      1.512367   213A      1.518445   214A      1.521231  
     215A      1.522556   216A      1.525157   217A      1.538921  
     218A      1.546813   219A      1.549609   220A      1.555168  
     221A      1.560967   222A      1.569191   223A      1.577356  
     224A      1.584824   225A      1.595958   226A      1.597508  
     227A      1.621440   228A      1.624318   229A      1.637561  
     230A      1.647178   231A      1.660263   232A      1.667979  
     233A      1.669005   234A      1.681421   235A      1.688910  
     236A      1.706931   237A      1.719361   238A      1.722719  
     239A      1.741530   240A      1.745432   241A      1.758061  
     242A      1.773834   243A      1.784183   244A      1.788044  
     245A      1.803969   246A      1.821886   247A      1.828320  
     248A      1.851236   249A      1.861582   250A      1.862973  
     251A      1.867582   252A      1.883930   253A      1.900372  
     254A      1.904617   255A      1.926197   256A      1.943438  
     257A      1.959068   258A      1.971807   259A      1.977463  
     260A      1.988197   261A      2.004508   262A      2.014903  
     263A      2.027291   264A      2.031354   265A      2.041650  
     266A      2.070108   267A      2.099228   268A      2.109035  
     269A      2.123275   270A      2.131394   271A      2.134849  
     272A      2.159385   273A      2.167588   274A      2.179539  
     275A      2.193286   276A      2.205494   277A      2.222206  
     278A      2.226227   279A      2.237786   280A      2.243784  
     281A      2.249112   282A      2.280055   283A      2.285941  
     284A      2.296259   285A      2.305709   286A      2.311069  
     287A      2.313687   288A      2.318198   289A      2.341386  
     290A      2.361828   291A      2.369073   292A      2.380200  
     293A      2.390970   294A      2.402240   295A      2.420808  
     296A      2.439623   297A      2.453668   298A      2.472862  
     299A      2.513392   300A      2.525335   301A      2.534157  
     302A      2.535891   303A      2.541083   304A      2.546514  
     305A      2.549108   306A      2.564110   307A      2.567105  
     308A      2.578152   309A      2.590515   310A      2.601349  
     311A      2.623696   312A      2.630289   313A      2.641032  
     314A      2.652117   315A      2.665917   316A      2.671494  
     317A      2.684886   318A      2.702976   319A      2.718825  
     320A      2.730012   321A      2.735104   322A      2.752125  
     323A      2.766984   324A      2.774657   325A      2.789405  
     326A      2.806645   327A      2.831744   328A      2.839895  
     329A      2.850382   330A      2.874899   331A      2.883402  
     332A      2.901741   333A      2.910183   334A      2.935216  
     335A      2.952374   336A      2.975627   337A      2.987989  
     338A      2.995781   339A      3.006845   340A      3.027122  
     341A      3.036580   342A      3.040682   343A      3.047514  
     344A      3.052230   345A      3.065675   346A      3.073623  
     347A      3.086086   348A      3.097418   349A      3.113941  
     350A      3.133275   351A      3.140913   352A      3.153373  
     353A      3.158507   354A      3.179126   355A      3.184674  
     356A      3.189304   357A      3.205079   358A      3.213905  
     359A      3.240674   360A      3.254969   361A      3.265130  
     362A      3.276620   363A      3.279217   364A      3.298582  
     365A      3.310418   366A      3.320824   367A      3.333793  
     368A      3.337852   369A      3.347472   370A      3.356301  
     371A      3.370831   372A      3.378599   373A      3.379996  
     374A      3.383873   375A      3.397264   376A      3.400705  
     377A      3.414141   378A      3.420495   379A      3.433770  
     380A      3.441732   381A      3.473807   382A      3.476018  
     383A      3.488323   384A      3.503801   385A      3.510577  
     386A      3.528102   387A      3.536404   388A      3.544911  
     389A      3.560387   390A      3.571840   391A      3.574211  
     392A      3.617133   393A      3.629711   394A      3.647813  
     395A      3.659662   396A      3.691432   397A      3.715293  
     398A      3.720713   399A      3.725381   400A      3.756755  
     401A      3.776113   402A      3.786727   403A      3.814621  
     404A      3.831102   405A      3.844251   406A      3.848307  
     407A      3.882309   408A      3.910389   409A      3.929590  
     410A      3.937364   411A      3.953653   412A      3.994323  
     413A      4.046967   414A      4.070490   415A      4.097065  
     416A      4.111258   417A      4.125031   418A      4.144422  
     419A      4.157847   420A      4.190325   421A      4.222149  
     422A      4.229051   423A      4.257363   424A      4.293584  
     425A      4.318929   426A      4.336630   427A      4.359957  
     428A      4.378718   429A      4.394531   430A      4.422814  
     431A      4.428967   432A      4.457001   433A      4.461478  
     434A      4.507111   435A      4.528103   436A      4.551065  
     437A      4.572770   438A      4.605254   439A      4.691916  
     440A      4.730769   441A      4.731775   442A      4.792515  
     443A      4.820826   444A      4.838933   445A      4.879136  
     446A      4.890508   447A      4.967581   448A      5.045134  
     449A      5.074800   450A      5.079534   451A      5.101492  
     452A      5.112772   453A      5.155962   454A      5.193694  
     455A      5.204045   456A      5.218806   457A      5.244666  
     458A      5.267120   459A      5.286511   460A      5.308021  
     461A      5.342973   462A      5.422186   463A      5.440131  
     464A      5.501432   465A      5.516071   466A      5.592370  
     467A      5.634832   468A      5.674193   469A      5.689150  
     470A      5.827372   471A      5.854009   472A      5.901247  
     473A      5.962190   474A      6.090733   475A      6.171903  
     476A      6.310543   477A      6.357781   478A      6.427870  
     479A      6.509108   480A      6.554164   481A      6.585255  
     482A      6.699151   483A      6.731301   484A      6.832703  
     485A      6.857303   486A      7.076289   487A      7.086845  
     488A      7.095609   489A      7.137537   490A      8.943593  
     491A      9.217103   492A      9.413235   493A     19.500128  
     494A     22.138457   495A     22.309885   496A     22.319890  
     497A     22.418613   498A     22.537026   499A     22.712950  
     500A     23.298436   501A     23.381781   502A     32.428059  
     503A     32.596248   504A     43.905531   505A     43.979293  

    Final Occupation by Irrep:
              A 
    DOCC [    55 ]
    NA   [    55 ]
    NB   [    55 ]

  @DF-RKS Final Energy:  -972.98494371423158

   => Energetics <=

    Nuclear Repulsion Energy =            965.3761026133898895
    One-Electron Energy =               -3248.9605264353785969
    Two-Electron Energy =                1396.6107207814065987
    DFT Exchange-Correlation Energy =     -85.9586770705582239
    Empirical Dispersion Energy =          -0.0525636030910146
    VV10 Nonlocal Energy =                  0.0000000000000000
    Total Energy =                       -972.9849437142314628

Computation Completed


Properties will be evaluated at   0.000000,   0.000000,   0.000000 [a0]

Properties computed using the SCF density matrix


 Multipole Moments:

 ------------------------------------------------------------------------------------
     Multipole            Electronic (a.u.)      Nuclear  (a.u.)        Total (a.u.)
 ------------------------------------------------------------------------------------

 L = 1.  Multiply by 2.5417464519 to convert [e a0] to [Debye]
 Dipole X            :        -17.9196870           17.0642574           -0.8554296
 Dipole Y            :         26.6238532          -26.8292314           -0.2053781
 Dipole Z            :        -31.2873405           30.7203478           -0.5669927
 Magnitude           :                                                    1.0466235

 ------------------------------------------------------------------------------------

*** tstop() called on choehoyun-ui-MacBookAir.local at Sun Aug  9 02:49:28 2026
Module time:
	user time   =     294.61 seconds =       4.91 minutes
	system time =       5.60 seconds =       0.09 minutes
	total time  =         45 seconds =       0.75 minutes
Total time:
	user time   =     294.61 seconds =       4.91 minutes
	system time =       5.60 seconds =       0.09 minutes
	total time  =         45 seconds =       0.75 minutes

    Psi4 stopped on: Sunday, 09 August 2026 02:49AM
    Psi4 wall time for execution: 0:00:44.60

*** Psi4 exiting successfully. Buy a developer a beer!
