
    -----------------------------------------------------------------------
          Psi4: An Open-Source Ab Initio Electronic Structure Package
                               Psi4 1.11 release

                         Git: Rev {} zzzzzzz 


    D. G. A. Smith, L. A. Burns, A. C. Simmonett, R. M. Parrish,
    M. C. Schieber, R. Galvelis, P. Kraus, H. Kruse, R. Di Remigio,
    A. Alenaizan, A. M. James, S. Lehtola, J. P. Misiewicz, M. Scheurer,
    R. A. Shaw, J. B. Schriber, Y. Xie, Z. L. Glick, D. A. Sirianni,
    J. S. O'Brien, J. M. Waldrop, A. Kumar, E. G. Hohenstein,
    B. P. Pritchard, B. R. Brooks, H. F. Schaefer III, A. Yu. Sokolov,
    K. Patkowski, A. E. DePrince III, U. Bozkaya, R. A. King,
    F. A. Evangelista, J. M. Turney, T. D. Crawford, C. D. Sherrill,
    J. Chem. Phys. 152(18) 184108 (2020). https://doi.org/10.1063/5.0006002

                            Additional Code Authors
    E. T. Seidl, C. L. Janssen, E. F. Valeev, M. L. Leininger,
    J. F. Gonthier, R. M. Richard, H. R. McAlexander, M. Saitow, X. Wang,
    P. Verma, M. H. Lechner, A. Jiang, S. Behnle, A. G. Heide,
    M. F. Herbst, D. L. Poole, T. Győri, E. C. Mitchell, J. P. Pederson,
    and A. M. Wallace

             Previous Authors, Complete List of Code Contributors,
                       and Citations for Specific Modules
    https://github.com/psi4/psi4/blob/master/codemeta.json
    https://github.com/psi4/psi4/graphs/contributors
    https://psicode.org/psi4manual/master/introduction.html#citing-psifour

    -----------------------------------------------------------------------


    Psi4 started on: Sunday, 09 August 2026 03:45PM

    Process ID: 60695
    Host:       choehoyun-ui-MacBookAir.local
    PSIDATADIR: /Users/hoyoun/micromamba/envs/psi4env/share/psi4
    Memory:     500.0 MiB
    Threads:    8
    Addons:     a̶d̶c̶c̶, a̶m̶b̶i̶t̶, b̶s̶e̶, c̶c̶t̶3̶, c̶f̶o̶u̶r̶, c̶h̶e̶m̶p̶s̶2̶, c̶p̶p̶e̶, d̶d̶x̶, dftd3,
                d̶f̶t̶d̶4̶, dkh, ecpint, einsums, f̶o̶r̶t̶e̶, gauxc, g̶c̶p̶, g̶d̶m̶a̶,
                g̶e̶o̶m̶e̶t̶r̶i̶c̶, g̶p̶u̶_̶d̶f̶c̶c̶, i̶n̶t̶e̶g̶r̶a̶t̶o̶r̶x̶x̶, i̶p̶i̶,
                l̶i̶b̶e̶f̶p̶, m̶d̶i̶, m̶p̶2̶d̶, m̶r̶c̶c̶, ooo, o̶p̶e̶n̶f̶e̶r̶m̶i̶o̶n̶p̶s̶i̶4̶,
                pcmsolver, p̶s̶i̶4̶f̶o̶c̶k̶c̶i̶, p̶s̶i̶x̶a̶s̶, p̶y̶e̶i̶n̶s̶u̶m̶s̶, r̶e̶s̶p̶,
                s̶i̶m̶i̶n̶t̶, s̶n̶s̶m̶p̶2̶, v̶2̶r̶d̶m̶_̶c̶a̶s̶s̶c̶f̶

  ==> Input File <==

--------------------------------------------------------------------------
memory 3 GB
molecule mol {
0 1
O 3.16943244803167 -1.40921622315206 0.24643243364532
C 4.20043245310603 -0.98021622104062 -0.21556756862854
O 5.36143245882021 -1.66921622443173 -0.21956756864823
H 5.16943245787523 -2.51321622858571 0.21543243349274
C 4.37743245397718 0.37078378560870 -0.87856757189168
H 4.67143245542418 0.20978378481629 -1.91456757699065
H 5.18843245796874 0.89078378816802 -0.37456756941111
N 3.18143244809073 1.15978378949198 -0.80756757154224
H 2.38043244414839 0.86078378802037 -1.35756757424921
C 2.86843244655022 1.72978379229739 0.39343243436882
O 3.66943245049256 1.87978379303566 1.30543243885748
C 1.40043243932505 2.11278379418243 0.51143243494959
H 1.03943243754829 2.56878379642676 -0.40856756957845
H 1.28443243875412 2.80278379757846 1.34143243903466
N 0.61743243547130 0.91878378830583 0.76643243620464
H 0.51743243497912 0.54278378645525 1.70043244080158
C 0.31243243397015 0.05778378406818 -0.21856756864331
O 0.53243243505295 0.27478378513621 -1.41556757453468
C -0.31056756909611 -1.25321622238427 0.25043243366500
N -0.62756757065631 -1.20121622212833 1.67543244067854
H -0.60756757055788 -2.13121622670559 2.07143244262756
H -1.56956757529263 -0.84521622037618 1.80243244130360
H 0.48843243483639 -1.98521622598701 0.11243243298580
C -1.48856757489397 -1.62421622421024 -0.66856757085811
H -1.14056757318119 -1.57021622394447 -1.69956757593246
H -1.77956757632621 -2.65421622927968 -0.45656756981469
C -2.65856758065245 -0.70921621970682 -0.45256756979501
C -3.69656758576125 -1.06921622147866 0.41343243446725
H -3.68256758569235 -2.04921622630200 0.87643243674604
C -4.75456759096849 -0.19821621719179 0.66943243572723
H -5.55056759488623 -0.49821621866832 1.33843243901989
C -4.78756759113091 1.05278378896535 0.05943243272494
H -5.60756759516677 1.73078379230232 0.25243243367485
C -3.76256758608609 1.42178379078149 -0.81156757156193
H -3.78756758620913 2.38778379553592 -1.29656757394898
C -2.70656758088869 0.55078378649462 -1.06456757280713
H -1.91156757697588 0.83678378790225 -1.74156757613918
units angstrom
no_reorient
no_com
}
set basis def2-TZVP
set scf_type df
set freeze_core true
set e_convergence 8
energy('b3lyp-d3bj')
--------------------------------------------------------------------------

  Memory set to   2.794 GiB by Python driver.

Scratch directory: /Users/hoyoun/Documents/Yonsei_AX_Camp/(진짜_이게_최종)/calibration/dft_work/_scratch/691/
   => Libint2 <=

    Primary   basis highest AM E, G, H:  7, 6, 3
    Auxiliary basis highest AM E, G, H:  7, 7, 4
    Onebody   basis highest AM E, G, H:  -, -, -
    Solid Harmonics ordering:            Gaussian

*** tstart() called on choehoyun-ui-MacBookAir.local
*** at Sun Aug  9 15:45:09 2026

   => Loading Basis Set <=

    Name: DEF2-TZVP
    Role: ORBITAL
    Keyword: BASIS
    atoms 1, 3, 11, 18                                           entry O          line   189 file /Users/hoyoun/micromamba/envs/psi4env/share/psi4/basis/def2-tzvp.gbs 
    atoms 2, 5, 10, 12, 17, 19, 24, 27-28, 30, 32, 34, 36        entry C          line   123 file /Users/hoyoun/micromamba/envs/psi4env/share/psi4/basis/def2-tzvp.gbs 
    atoms 4, 6-7, 9, 13-14, 16, 21-23, 25-26, 29, 31, 33, 35, 37 entry H          line    15 file /Users/hoyoun/micromamba/envs/psi4env/share/psi4/basis/def2-tzvp.gbs 
    atoms 8, 15, 20                                              entry N          line   156 file /Users/hoyoun/micromamba/envs/psi4env/share/psi4/basis/def2-tzvp.gbs 

   => B3LYP-D3(BJ): Empirical Dispersion <=

    Grimme's -D3 (BJ-damping) Dispersion Correction
    Grimme S.; Ehrlich S.; Goerigk L. (2011), J. Comput. Chem., 32: 1456

        s6 =       1.000000
        s8 =       1.988900
        a1 =       0.398100
        a2 =       4.421100


         ---------------------------------------------------------
                                   SCF
               by Justin Turney, Rob Parrish, Andy Simmonett
                          and Daniel G. A. Smith
                              RKS Reference
                        8 Threads,   2861 MiB Core
         ---------------------------------------------------------

  ==> Geometry <==

    Molecular point group: c1
    Full point group: C1

    Geometry (in Angstrom), charge = 0, multiplicity = 1:

       Center              X                  Y                   Z               Mass       
    ------------   -----------------  -----------------  -----------------  -----------------
         O            3.169432448032    -1.409216223152     0.246432433645    15.994914619570
         C            4.200432453106    -0.980216221041    -0.215567568629    12.000000000000
         O            5.361432458820    -1.669216224432    -0.219567568648    15.994914619570
         H            5.169432457875    -2.513216228586     0.215432433493     1.007825032230
         C            4.377432453977     0.370783785609    -0.878567571892    12.000000000000
         H            4.671432455424     0.209783784816    -1.914567576991     1.007825032230
         H            5.188432457969     0.890783788168    -0.374567569411     1.007825032230
         N            3.181432448091     1.159783789492    -0.807567571542    14.003074004430
         H            2.380432444148     0.860783788020    -1.357567574249     1.007825032230
         C            2.868432446550     1.729783792297     0.393432434369    12.000000000000
         O            3.669432450493     1.879783793036     1.305432438857    15.994914619570
         C            1.400432439325     2.112783794182     0.511432434950    12.000000000000
         H            1.039432437548     2.568783796427    -0.408567569578     1.007825032230
         H            1.284432438754     2.802783797578     1.341432439035     1.007825032230
         N            0.617432435471     0.918783788306     0.766432436205    14.003074004430
         H            0.517432434979     0.542783786455     1.700432440802     1.007825032230
         C            0.312432433970     0.057783784068    -0.218567568643    12.000000000000
         O            0.532432435053     0.274783785136    -1.415567574535    15.994914619570
         C           -0.310567569096    -1.253216222384     0.250432433665    12.000000000000
         N           -0.627567570656    -1.201216222128     1.675432440679    14.003074004430
         H           -0.607567570558    -2.131216226706     2.071432442628     1.007825032230
         H           -1.569567575293    -0.845216220376     1.802432441304     1.007825032230
         H            0.488432434836    -1.985216225987     0.112432432986     1.007825032230
         C           -1.488567574894    -1.624216224210    -0.668567570858    12.000000000000
         H           -1.140567573181    -1.570216223944    -1.699567575932     1.007825032230
         H           -1.779567576326    -2.654216229280    -0.456567569815     1.007825032230
         C           -2.658567580652    -0.709216219707    -0.452567569795    12.000000000000
         C           -3.696567585761    -1.069216221479     0.413432434467    12.000000000000
         H           -3.682567585692    -2.049216226302     0.876432436746     1.007825032230
         C           -4.754567590968    -0.198216217192     0.669432435727    12.000000000000
         H           -5.550567594886    -0.498216218668     1.338432439020     1.007825032230
         C           -4.787567591131     1.052783788965     0.059432432725    12.000000000000
         H           -5.607567595167     1.730783792302     0.252432433675     1.007825032230
         C           -3.762567586086     1.421783790781    -0.811567571562    12.000000000000
         H           -3.787567586209     2.387783795536    -1.296567573949     1.007825032230
         C           -2.706567580889     0.550783786495    -1.064567572807    12.000000000000
         H           -1.911567576976     0.836783787902    -1.741567576139     1.007825032230

  Running in c1 symmetry.

  Rotational constants: A =      0.02575  B =      0.00557  C =      0.00514 [cm^-1]
  Rotational constants: A =    772.07411  B =    167.06441  C =    154.04178 [MHz]
  Nuclear repulsion = 1590.988677952655280

  Charge       = 0
  Multiplicity = 1
  Electrons    = 148
  Nalpha       = 74
  Nbeta        = 74

  ==> Algorithm <==

  SCF Algorithm Type is DF.
  DIIS enabled.
  MOM disabled.
  Fractional occupation disabled.
  Guess Type is SAD.
  Energy threshold   = 1.00e-08
  Density threshold  = 1.00e-06
  Integral threshold = 1.00e-12

  ==> Primary Basis <==

  Basis Set: DEF2-TZVP
    Blend: DEF2-TZVP
    Number of shells: 288
    Number of basis functions: 722
    Number of Cartesian functions: 822
    Spherical Harmonics?: true
    Max angular momentum: 3

  ==> DFT Potential <==

   => LibXC <=

    Version 7.1.2
    S. Lehtola, C. Steigemann, M. J. T. Oliveira, and M. A. L. Marques,  SoftwareX 7, 1–5 (2018) (10.1016/j.softx.2017.11.002)

   => Composite Functional: B3LYP-D3BJ2B <= 

    B3LYP-d3bj2b Hyb-GGA Exchange-Correlation Functional

    P. J. Stephens, F. J. Devlin, C. F. Chabalowski, and M. J. Frisch,  J. Phys. Chem. 98, 11623 (1994) (10.1021/j100096a001)

    Deriv               =              1
    GGA                 =           TRUE
    Meta                =          FALSE

    Exchange Hybrid     =           TRUE
    MP2 Hybrid          =          FALSE

   => Exchange Functionals <=

    0.0800   Slater exchange
    0.7200         Becke 88

   => Exact (HF) Exchange <=

    0.2000               HF 

   => Correlation Functionals <=

    0.1900   Vosko, Wilk & Nusair (VWN5_RPA)
    0.8100   Lee, Yang & Parr

   => LibXC Density Thresholds  <==

    XC_HYB_GGA_XC_B3LYP:  1.00E-15 

   => Molecular Quadrature <=

    Radial Scheme          =       TREUTLER
    Pruning Scheme         =           NONE
    Nuclear Scheme         =       TREUTLER

    Blocking Scheme        =         OCTREE
    BS radius alpha        =              1
    Pruning alpha          =              1
    Radial Points          =             75
    Spherical Points       =            302
    Total Points           =         761403
    Total Blocks           =           5429
    Max Points             =            256
    Max Functions          =            501
    Weights Tolerance      =       1.00E-15

   => Loading Basis Set <=

    Name: (DEF2-TZVP AUX)
    Role: JKFIT
    Keyword: DF_BASIS_SCF
    atoms 1, 3, 11, 18                                           entry O          line   318 file /Users/hoyoun/micromamba/envs/psi4env/share/psi4/basis/def2-universal-jkfit.gbs 
    atoms 2, 5, 10, 12, 17, 19, 24, 27-28, 30, 32, 34, 36        entry C          line   198 file /Users/hoyoun/micromamba/envs/psi4env/share/psi4/basis/def2-universal-jkfit.gbs 
    atoms 4, 6-7, 9, 13-14, 16, 21-23, 25-26, 29, 31, 33, 35, 37 entry H          line    18 file /Users/hoyoun/micromamba/envs/psi4env/share/psi4/basis/def2-universal-jkfit.gbs 
    atoms 8, 15, 20                                              entry N          line   258 file /Users/hoyoun/micromamba/envs/psi4env/share/psi4/basis/def2-universal-jkfit.gbs 

  ==> Integral Setup <==

  ==> DiskDFJK: Density-Fitted J/K Matrices <==

    J tasked:                  Yes
    K tasked:                  Yes
    wK tasked:                  No
    OpenMP threads:              8
    Integrals threads:           8
    Memory [MiB]:             1931
    Algorithm:                Disk
    Integral Cache:           NONE
    Schwarz Cutoff:          1E-12
    Fitting Condition:       1E-10

   => Auxiliary Basis Set <=

  Basis Set: (DEF2-TZVP AUX)
    Blend: DEF2-UNIVERSAL-JKFIT
    Number of shells: 602
    Number of basis functions: 1820
    Number of Cartesian functions: 2148
    Spherical Harmonics?: true
    Max angular momentum: 4

  Cached 2.9% of DFT collocation blocks in 0.191 [GiB].

  Minimum eigenvalue in the overlap matrix is 7.6434517390E-06.
  Reciprocal condition number of the overlap matrix is 7.1116017256E-07.
    Using symmetric orthogonalization.

  ==> Pre-Iterations <==

  SCF Guess: Superposition of Atomic Densities via on-the-fly atomic UHF (no occupation information).

   -------------------------
    Irrep   Nso     Nmo    
   -------------------------
     A        722     722 
   -------------------------
    Total     722     722
   -------------------------

  ==> Iterations <==

                           Total Energy        Delta E     RMS |[F,P]|

   @DF-RKS iter SAD:  -970.40116348323249   -9.70401e+02   0.00000e+00 
   @DF-RKS iter   1:  -969.82269257215660    5.78471e-01   2.52589e-03 DIIS/ADIIS
   @DF-RKS iter   2:  -968.74689741855934    1.07580e+00   3.29214e-03 DIIS/ADIIS
   @DF-RKS iter   3:  -971.23515787117242   -2.48826e+00   5.20929e-04 DIIS/ADIIS
   @DF-RKS iter   4:  -971.27261184948225   -3.74540e-02   3.20768e-04 DIIS/ADIIS
   @DF-RKS iter   5:  -971.29191487804349   -1.93030e-02   8.51438e-05 DIIS
   @DF-RKS iter   6:  -971.29329262280180   -1.37774e-03   2.40240e-05 DIIS
   @DF-RKS iter   7:  -971.29340599207751   -1.13369e-04   7.53346e-06 DIIS
   @DF-RKS iter   8:  -971.29341765653430   -1.16645e-05   3.21012e-06 DIIS
   @DF-RKS iter   9:  -971.29342003665681   -2.38012e-06   8.01129e-07 DIIS
   @DF-RKS iter  10:  -971.29342015477118   -1.18114e-07   2.84345e-07 DIIS
   @DF-RKS iter  11:  -971.29342016937346   -1.46023e-08   1.20011e-07 DIIS
   @DF-RKS iter  12:  -971.29342017248882   -3.11536e-09   3.26250e-08 DIIS
  Energy and wave function converged.


  ==> Post-Iterations <==

   Electrons on quadrature grid:
      Ntotal   =  147.9999465320 ; deviation = -5.347e-05 

    Orbital Energies [Eh]
    ---------------------

    Doubly Occupied:                                                      

       1A    -19.189224     2A    -19.131627     3A    -19.098900  
       4A    -19.095751     5A    -14.346880     6A    -14.335714  
       7A    -14.314652     8A    -10.318095     9A    -10.274335  
      10A    -10.271730    11A    -10.225336    12A    -10.217364  
      13A    -10.217089    14A    -10.187704    15A    -10.181486  
      16A    -10.180475    17A    -10.179438    18A    -10.178787  
      19A    -10.178652    20A    -10.175025    21A     -1.124839  
      22A     -1.049603    23A     -1.039656    24A     -1.033929  
      25A     -0.940748    26A     -0.930647    27A     -0.907120  
      28A     -0.863317    29A     -0.787825    30A     -0.773152  
      31A     -0.752220    32A     -0.738544    33A     -0.718519  
      34A     -0.655273    35A     -0.633122    36A     -0.613549  
      37A     -0.594708    38A     -0.582332    39A     -0.579701  
      40A     -0.544803    41A     -0.534571    42A     -0.519360  
      43A     -0.515497    44A     -0.504301    45A     -0.498470  
      46A     -0.490013    47A     -0.476504    48A     -0.475620  
      49A     -0.466568    50A     -0.461388    51A     -0.441374  
      52A     -0.434997    53A     -0.430045    54A     -0.423542  
      55A     -0.421470    56A     -0.417895    57A     -0.407741  
      58A     -0.404530    59A     -0.391743    60A     -0.384625  
      61A     -0.378500    62A     -0.373662    63A     -0.367681  
      64A     -0.345699    65A     -0.342429    66A     -0.338904  
      67A     -0.303544    68A     -0.292926    69A     -0.285653  
      70A     -0.271534    71A     -0.262723    72A     -0.261357  
      73A     -0.251473    74A     -0.249804  

    Virtual:                                                              

      75A     -0.022663    76A     -0.019867    77A     -0.010659  
      78A     -0.004826    79A      0.014363    80A      0.024343  
      81A      0.028713    82A      0.047323    83A      0.053250  
      84A      0.063700    85A      0.068958    86A      0.076284  
      87A      0.082979    88A      0.088907    89A      0.095334  
      90A      0.100856    91A      0.102752    92A      0.112837  
      93A      0.117512    94A      0.124891    95A      0.135346  
      96A      0.136101    97A      0.140051    98A      0.146118  
      99A      0.149870   100A      0.155506   101A      0.160074  
     102A      0.173404   103A      0.176450   104A      0.183700  
     105A      0.188116   106A      0.199624   107A      0.204925  
     108A      0.209831   109A      0.210537   110A      0.220689  
     111A      0.223932   112A      0.224838   113A      0.231948  
     114A      0.237373   115A      0.238808   116A      0.244665  
     117A      0.248568   118A      0.255960   119A      0.267645  
     120A      0.272970   121A      0.276251   122A      0.280763  
     123A      0.292479   124A      0.298923   125A      0.302729  
     126A      0.305947   127A      0.306898   128A      0.312413  
     129A      0.318804   130A      0.326991   131A      0.332134  
     132A      0.336588   133A      0.342113   134A      0.345717  
     135A      0.349073   136A      0.354137   137A      0.356973  
     138A      0.361686   139A      0.366009   140A      0.374390  
     141A      0.377730   142A      0.379474   143A      0.383258  
     144A      0.392639   145A      0.397752   146A      0.402307  
     147A      0.407480   148A      0.407863   149A      0.413916  
     150A      0.418168   151A      0.419606   152A      0.425214  
     153A      0.426535   154A      0.436789   155A      0.437023  
     156A      0.440994   157A      0.445979   158A      0.452411  
     159A      0.457178   160A      0.462890   161A      0.469885  
     162A      0.474501   163A      0.478753   164A      0.484197  
     165A      0.486471   166A      0.487376   167A      0.490210  
     168A      0.495753   169A      0.504362   170A      0.509959  
     171A      0.513311   172A      0.522580   173A      0.524541  
     174A      0.531075   175A      0.539059   176A      0.544856  
     177A      0.549479   178A      0.554790   179A      0.565425  
     180A      0.571398   181A      0.579205   182A      0.586089  
     183A      0.592518   184A      0.599824   185A      0.604576  
     186A      0.614088   187A      0.623783   188A      0.634610  
     189A      0.640341   190A      0.646958   191A      0.653919  
     192A      0.662489   193A      0.665333   194A      0.673122  
     195A      0.679041   196A      0.690865   197A      0.691998  
     198A      0.700999   199A      0.704537   200A      0.711935  
     201A      0.722550   202A      0.731942   203A      0.736849  
     204A      0.757207   205A      0.761058   206A      0.769660  
     207A      0.772655   208A      0.777839   209A      0.786104  
     210A      0.792143   211A      0.800824   212A      0.807083  
     213A      0.809958   214A      0.820750   215A      0.821273  
     216A      0.834034   217A      0.853909   218A      0.855760  
     219A      0.862633   220A      0.879001   221A      0.882325  
     222A      0.890897   223A      0.895810   224A      0.901742  
     225A      0.905904   226A      0.924289   227A      0.929893  
     228A      0.940094   229A      0.946350   230A      0.968070  
     231A      0.973313   232A      0.984749   233A      0.990104  
     234A      1.002542   235A      1.012978   236A      1.019920  
     237A      1.020343   238A      1.027117   239A      1.031806  
     240A      1.038263   241A      1.046518   242A      1.056663  
     243A      1.064466   244A      1.071694   245A      1.083798  
     246A      1.087621   247A      1.107489   248A      1.122531  
     249A      1.137767   250A      1.144737   251A      1.150617  
     252A      1.158781   253A      1.172311   254A      1.193591  
     255A      1.203167   256A      1.207152   257A      1.216221  
     258A      1.219378   259A      1.225617   260A      1.230521  
     261A      1.241174   262A      1.247348   263A      1.254163  
     264A      1.262341   265A      1.269256   266A      1.282171  
     267A      1.300739   268A      1.311136   269A      1.313846  
     270A      1.321985   271A      1.325293   272A      1.344684  
     273A      1.347950   274A      1.362591   275A      1.371188  
     276A      1.376263   277A      1.388714   278A      1.396881  
     279A      1.409721   280A      1.414800   281A      1.425598  
     282A      1.429407   283A      1.436338   284A      1.449277  
     285A      1.455098   286A      1.458812   287A      1.470812  
     288A      1.482390   289A      1.485371   290A      1.487385  
     291A      1.497637   292A      1.505767   293A      1.514520  
     294A      1.520309   295A      1.528326   296A      1.542915  
     297A      1.547895   298A      1.558883   299A      1.560934  
     300A      1.567691   301A      1.587091   302A      1.594280  
     303A      1.599802   304A      1.605023   305A      1.614122  
     306A      1.618567   307A      1.622429   308A      1.630969  
     309A      1.635887   310A      1.640312   311A      1.645062  
     312A      1.663128   313A      1.669292   314A      1.686827  
     315A      1.689946   316A      1.697038   317A      1.703811  
     318A      1.712940   319A      1.720657   320A      1.729811  
     321A      1.737845   322A      1.744430   323A      1.747653  
     324A      1.759025   325A      1.780647   326A      1.792402  
     327A      1.797327   328A      1.815991   329A      1.820256  
     330A      1.824861   331A      1.834318   332A      1.842445  
     333A      1.844502   334A      1.854063   335A      1.857891  
     336A      1.871469   337A      1.879390   338A      1.887732  
     339A      1.893397   340A      1.911194   341A      1.921671  
     342A      1.930118   343A      1.937311   344A      1.947927  
     345A      1.961222   346A      1.969772   347A      1.978219  
     348A      1.999878   349A      2.005996   350A      2.015903  
     351A      2.030490   352A      2.041337   353A      2.050963  
     354A      2.054022   355A      2.061689   356A      2.065176  
     357A      2.070951   358A      2.085477   359A      2.096391  
     360A      2.107569   361A      2.109429   362A      2.119543  
     363A      2.130713   364A      2.136394   365A      2.140515  
     366A      2.147468   367A      2.160935   368A      2.174864  
     369A      2.177422   370A      2.183707   371A      2.198583  
     372A      2.202700   373A      2.212272   374A      2.226352  
     375A      2.228266   376A      2.229858   377A      2.252043  
     378A      2.253294   379A      2.279965   380A      2.286588  
     381A      2.292573   382A      2.300858   383A      2.308153  
     384A      2.343293   385A      2.360951   386A      2.364209  
     387A      2.378976   388A      2.393782   389A      2.406923  
     390A      2.411173   391A      2.420726   392A      2.438939  
     393A      2.445341   394A      2.461974   395A      2.462210  
     396A      2.480107   397A      2.496557   398A      2.508510  
     399A      2.510855   400A      2.522512   401A      2.524931  
     402A      2.536176   403A      2.545481   404A      2.553256  
     405A      2.556842   406A      2.562727   407A      2.568407  
     408A      2.582979   409A      2.597596   410A      2.602363  
     411A      2.610888   412A      2.629809   413A      2.636869  
     414A      2.644565   415A      2.648120   416A      2.649855  
     417A      2.658540   418A      2.659926   419A      2.665797  
     420A      2.672704   421A      2.681084   422A      2.695468  
     423A      2.701284   424A      2.712215   425A      2.720691  
     426A      2.729743   427A      2.732605   428A      2.742702  
     429A      2.753205   430A      2.761675   431A      2.765222  
     432A      2.776900   433A      2.784909   434A      2.786256  
     435A      2.788679   436A      2.799009   437A      2.800537  
     438A      2.811030   439A      2.813766   440A      2.824130  
     441A      2.833308   442A      2.845137   443A      2.854549  
     444A      2.860826   445A      2.879929   446A      2.895343  
     447A      2.899376   448A      2.911608   449A      2.912830  
     450A      2.923295   451A      2.935445   452A      2.941785  
     453A      2.952000   454A      2.955799   455A      2.962600  
     456A      2.976978   457A      2.988377   458A      2.991199  
     459A      3.011834   460A      3.024495   461A      3.028103  
     462A      3.030730   463A      3.038780   464A      3.059672  
     465A      3.066770   466A      3.073599   467A      3.079594  
     468A      3.098137   469A      3.104766   470A      3.110658  
     471A      3.121623   472A      3.131134   473A      3.132459  
     474A      3.133992   475A      3.138076   476A      3.145729  
     477A      3.153226   478A      3.154113   479A      3.160706  
     480A      3.166112   481A      3.170249   482A      3.183673  
     483A      3.192683   484A      3.199854   485A      3.202195  
     486A      3.213798   487A      3.217155   488A      3.229590  
     489A      3.238958   490A      3.247115   491A      3.256049  
     492A      3.261200   493A      3.271635   494A      3.277072  
     495A      3.284981   496A      3.289615   497A      3.291075  
     498A      3.298195   499A      3.306875   500A      3.316394  
     501A      3.321382   502A      3.324759   503A      3.339870  
     504A      3.352869   505A      3.357461   506A      3.363566  
     507A      3.365653   508A      3.377349   509A      3.383890  
     510A      3.391810   511A      3.402722   512A      3.408314  
     513A      3.417735   514A      3.419791   515A      3.430604  
     516A      3.441939   517A      3.449828   518A      3.457768  
     519A      3.463577   520A      3.471994   521A      3.480316  
     522A      3.493744   523A      3.497803   524A      3.512663  
     525A      3.521582   526A      3.526209   527A      3.532727  
     528A      3.542527   529A      3.552105   530A      3.565268  
     531A      3.572432   532A      3.588115   533A      3.591236  
     534A      3.604384   535A      3.627272   536A      3.641162  
     537A      3.648182   538A      3.667044   539A      3.688291  
     540A      3.699706   541A      3.710601   542A      3.734348  
     543A      3.740337   544A      3.757707   545A      3.761920  
     546A      3.790920   547A      3.806882   548A      3.815726  
     549A      3.817751   550A      3.834696   551A      3.838088  
     552A      3.845413   553A      3.855776   554A      3.859515  
     555A      3.871496   556A      3.888864   557A      3.916995  
     558A      3.928288   559A      3.931543   560A      3.947028  
     561A      3.950524   562A      3.967165   563A      3.989642  
     564A      4.014528   565A      4.023903   566A      4.042044  
     567A      4.053712   568A      4.067535   569A      4.078760  
     570A      4.087108   571A      4.110629   572A      4.135026  
     573A      4.140083   574A      4.152495   575A      4.174230  
     576A      4.185708   577A      4.199782   578A      4.208025  
     579A      4.209475   580A      4.227397   581A      4.231526  
     582A      4.247476   583A      4.262872   584A      4.274115  
     585A      4.305362   586A      4.307684   587A      4.316767  
     588A      4.328312   589A      4.339167   590A      4.357331  
     591A      4.381918   592A      4.395971   593A      4.413065  
     594A      4.431795   595A      4.462476   596A      4.473405  
     597A      4.479695   598A      4.491314   599A      4.509330  
     600A      4.528605   601A      4.586918   602A      4.597611  
     603A      4.633601   604A      4.669288   605A      4.683430  
     606A      4.701007   607A      4.712174   608A      4.720094  
     609A      4.730140   610A      4.750851   611A      4.755253  
     612A      4.783186   613A      4.820236   614A      4.829373  
     615A      4.849250   616A      4.852812   617A      4.875902  
     618A      4.885105   619A      4.915372   620A      4.938076  
     621A      4.957935   622A      4.975393   623A      4.993557  
     624A      5.012462   625A      5.036040   626A      5.043357  
     627A      5.096837   628A      5.111429   629A      5.117414  
     630A      5.132982   631A      5.146235   632A      5.152560  
     633A      5.169197   634A      5.178515   635A      5.197878  
     636A      5.201712   637A      5.207991   638A      5.221155  
     639A      5.229049   640A      5.238495   641A      5.245349  
     642A      5.268113   643A      5.305366   644A      5.317682  
     645A      5.327421   646A      5.334347   647A      5.357485  
     648A      5.370058   649A      5.375074   650A      5.401707  
     651A      5.418064   652A      5.433158   653A      5.436698  
     654A      5.458806   655A      5.474878   656A      5.499922  
     657A      5.516575   658A      5.558106   659A      5.574407  
     660A      5.601549   661A      5.646429   662A      5.669479  
     663A      5.676591   664A      5.706149   665A      5.762448  
     666A      5.793882   667A      5.825895   668A      5.847159  
     669A      5.873236   670A      5.885977   671A      5.943260  
     672A      5.962102   673A      6.130743   674A      6.165733  
     675A      6.170747   676A      6.202217   677A      6.316553  
     678A      6.334403   679A      6.341882   680A      6.369821  
     681A      6.419758   682A      6.434610   683A      6.499979  
     684A      6.520588   685A      6.554444   686A      6.581317  
     687A      6.651651   688A      6.677186   689A      6.712547  
     690A      6.742221   691A      6.758202   692A      6.817097  
     693A      6.845553   694A      6.879887   695A      6.894569  
     696A      7.069429   697A      7.084254   698A      7.100876  
     699A      7.116525   700A      7.131598   701A      7.146510  
     702A      7.322796   703A     22.089935   704A     22.514016  
     705A     22.549421   706A     22.551965   707A     22.584421  
     708A     22.619761   709A     22.684071   710A     22.733825  
     711A     22.789387   712A     23.199368   713A     23.204048  
     714A     23.308580   715A     23.401806   716A     32.091648  
     717A     32.427417   718A     32.538339   719A     43.764990  
     720A     43.883148   721A     43.924800   722A     44.071318  

    Final Occupation by Irrep:
              A 
    DOCC [    74 ]
    NA   [    74 ]
    NB   [    74 ]

  @DF-RKS Final Energy:  -971.29342017248882

   => Energetics <=

    Nuclear Repulsion Energy =           1590.9886779526552800
    One-Electron Energy =               -4484.3147942387240619
    Two-Electron Energy =                2029.1562330489757642
    DFT Exchange-Correlation Energy =    -107.0468325207999953
    Empirical Dispersion Energy =          -0.0767044145957197
    VV10 Nonlocal Energy =                  0.0000000000000000
    Total Energy =                       -971.2934201724889363

Computation Completed


Properties will be evaluated at   0.000000,   0.000000,   0.000000 [a0]

Properties computed using the SCF density matrix


 Multipole Moments:

 ------------------------------------------------------------------------------------
     Multipole            Electronic (a.u.)      Nuclear  (a.u.)        Total (a.u.)
 ------------------------------------------------------------------------------------

 L = 1.  Multiply by 2.5417464519 to convert [e a0] to [Debye]
 Dipole X            :       -101.0856080          100.3917009           -0.6939071
 Dipole Y            :        -12.5162068           11.5424472           -0.9737596
 Dipole Z            :          1.6172015           -1.5854802            0.0317212
 Magnitude           :                                                    1.1961275

 ------------------------------------------------------------------------------------

*** tstop() called on choehoyun-ui-MacBookAir.local at Sun Aug  9 15:46:51 2026
Module time:
	user time   =     669.91 seconds =      11.17 minutes
	system time =      11.23 seconds =       0.19 minutes
	total time  =        102 seconds =       1.70 minutes
Total time:
	user time   =     669.91 seconds =      11.17 minutes
	system time =      11.23 seconds =       0.19 minutes
	total time  =        102 seconds =       1.70 minutes

    Psi4 stopped on: Sunday, 09 August 2026 03:46PM
    Psi4 wall time for execution: 0:01:41.45

*** Psi4 exiting successfully. Buy a developer a beer!
