
    -----------------------------------------------------------------------
          Psi4: An Open-Source Ab Initio Electronic Structure Package
                               Psi4 1.11 release

                         Git: Rev {} zzzzzzz 


    D. G. A. Smith, L. A. Burns, A. C. Simmonett, R. M. Parrish,
    M. C. Schieber, R. Galvelis, P. Kraus, H. Kruse, R. Di Remigio,
    A. Alenaizan, A. M. James, S. Lehtola, J. P. Misiewicz, M. Scheurer,
    R. A. Shaw, J. B. Schriber, Y. Xie, Z. L. Glick, D. A. Sirianni,
    J. S. O'Brien, J. M. Waldrop, A. Kumar, E. G. Hohenstein,
    B. P. Pritchard, B. R. Brooks, H. F. Schaefer III, A. Yu. Sokolov,
    K. Patkowski, A. E. DePrince III, U. Bozkaya, R. A. King,
    F. A. Evangelista, J. M. Turney, T. D. Crawford, C. D. Sherrill,
    J. Chem. Phys. 152(18) 184108 (2020). https://doi.org/10.1063/5.0006002

                            Additional Code Authors
    E. T. Seidl, C. L. Janssen, E. F. Valeev, M. L. Leininger,
    J. F. Gonthier, R. M. Richard, H. R. McAlexander, M. Saitow, X. Wang,
    P. Verma, M. H. Lechner, A. Jiang, S. Behnle, A. G. Heide,
    M. F. Herbst, D. L. Poole, T. Győri, E. C. Mitchell, J. P. Pederson,
    and A. M. Wallace

             Previous Authors, Complete List of Code Contributors,
                       and Citations for Specific Modules
    https://github.com/psi4/psi4/blob/master/codemeta.json
    https://github.com/psi4/psi4/graphs/contributors
    https://psicode.org/psi4manual/master/introduction.html#citing-psifour

    -----------------------------------------------------------------------


    Psi4 started on: Sunday, 09 August 2026 03:36PM

    Process ID: 60407
    Host:       choehoyun-ui-MacBookAir.local
    PSIDATADIR: /Users/hoyoun/micromamba/envs/psi4env/share/psi4
    Memory:     500.0 MiB
    Threads:    8
    Addons:     a̶d̶c̶c̶, a̶m̶b̶i̶t̶, b̶s̶e̶, c̶c̶t̶3̶, c̶f̶o̶u̶r̶, c̶h̶e̶m̶p̶s̶2̶, c̶p̶p̶e̶, d̶d̶x̶, dftd3,
                d̶f̶t̶d̶4̶, dkh, ecpint, einsums, f̶o̶r̶t̶e̶, gauxc, g̶c̶p̶, g̶d̶m̶a̶,
                g̶e̶o̶m̶e̶t̶r̶i̶c̶, g̶p̶u̶_̶d̶f̶c̶c̶, i̶n̶t̶e̶g̶r̶a̶t̶o̶r̶x̶x̶, i̶p̶i̶,
                l̶i̶b̶e̶f̶p̶, m̶d̶i̶, m̶p̶2̶d̶, m̶r̶c̶c̶, ooo, o̶p̶e̶n̶f̶e̶r̶m̶i̶o̶n̶p̶s̶i̶4̶,
                pcmsolver, p̶s̶i̶4̶f̶o̶c̶k̶c̶i̶, p̶s̶i̶x̶a̶s̶, p̶y̶e̶i̶n̶s̶u̶m̶s̶, r̶e̶s̶p̶,
                s̶i̶m̶i̶n̶t̶, s̶n̶s̶m̶p̶2̶, v̶2̶r̶d̶m̶_̶c̶a̶s̶s̶c̶f̶

  ==> Input File <==

--------------------------------------------------------------------------
memory 3 GB
molecule mol {
0 1
O -3.90491893813806 1.61954054851156 0.46321621849606
C -3.64691893686824 0.46554054283183 0.21421621727054
O -4.11991893919624 -0.54945946216377 0.94321622085852
H -3.80591893765081 -1.39845946634236 0.55021621892426
C -2.76891893254692 0.05354054080406 -0.96478378853223
H -2.42791893086859 0.95254054522874 -1.46478379099312
H -3.37191893551476 -0.54145946212440 -1.65278379191841
N -1.60891892683766 -0.73245946306446 -0.58178378664719
H -0.71791892245235 -0.27445946081029 -0.46178378605658
C -1.71991892738398 -2.02645946943324 -0.23978378496395
O -2.80791893273887 -2.61145947231248 -0.17578378464895
C -0.43291892104965 -2.76045947304582 0.08321621662579
H -0.49191892134003 -3.73445947783964 -0.40178378576127
H -0.40291892090200 -2.92445947385299 1.16021622192655
N 0.76008108482203 -2.04745946953660 -0.27978378516082
H 1.07308108636255 -1.96945946915270 -1.23778378987588
C 1.64808108919257 -1.60945946738086 0.64921621941152
O 1.51808108855274 -1.76645946815358 1.85621622535210
C 2.82408109498058 -0.82845946353695 0.06321621652735
N 2.73608109454746 -0.75045946315305 -1.39478379064860
H 2.23108109206197 0.08754054097140 -1.66278379196764
H 3.66108109910011 -0.67445946277900 -1.79778379263208
H 3.72008109939049 -1.39245946631283 0.32321621780702
C 2.88108109526112 0.53954054319604 0.77621622003658
H 3.02208109595509 0.36054054231504 1.84121622527827
H 3.74708109952338 1.08554054588333 0.39921621818107
C 1.62108108905968 1.32654054706948 0.54721621890949
C 0.53808108372940 1.20354054646410 1.42921622325050
H 0.63908108422649 0.57054054334862 2.30121622754229
C -0.65591892214721 1.88154054980107 1.19121622207912
H -1.48291892621752 1.78454054932365 1.88221622548007
C -0.79391892282641 2.68954055377786 0.06221621652243
H -1.72891892742827 3.20254055630273 -0.11578378435364
C 0.27908108245465 2.83054055447183 -0.81578378779889
H 0.19208108202646 3.47354055763653 -1.68178379206115
C 1.47808108835586 2.15754055115948 -0.57078378659305
H 2.32108109250492 2.30754055189774 -1.23578378986603
units angstrom
no_reorient
no_com
}
set basis def2-TZVP
set scf_type df
set freeze_core true
set e_convergence 8
energy('b3lyp-d3bj')
--------------------------------------------------------------------------

  Memory set to   2.794 GiB by Python driver.

Scratch directory: /Users/hoyoun/Documents/Yonsei_AX_Camp/(진짜_이게_최종)/calibration/dft_work/_scratch/357/
   => Libint2 <=

    Primary   basis highest AM E, G, H:  7, 6, 3
    Auxiliary basis highest AM E, G, H:  7, 7, 4
    Onebody   basis highest AM E, G, H:  -, -, -
    Solid Harmonics ordering:            Gaussian

*** tstart() called on choehoyun-ui-MacBookAir.local
*** at Sun Aug  9 15:36:31 2026

   => Loading Basis Set <=

    Name: DEF2-TZVP
    Role: ORBITAL
    Keyword: BASIS
    atoms 1, 3, 11, 18                                           entry O          line   189 file /Users/hoyoun/micromamba/envs/psi4env/share/psi4/basis/def2-tzvp.gbs 
    atoms 2, 5, 10, 12, 17, 19, 24, 27-28, 30, 32, 34, 36        entry C          line   123 file /Users/hoyoun/micromamba/envs/psi4env/share/psi4/basis/def2-tzvp.gbs 
    atoms 4, 6-7, 9, 13-14, 16, 21-23, 25-26, 29, 31, 33, 35, 37 entry H          line    15 file /Users/hoyoun/micromamba/envs/psi4env/share/psi4/basis/def2-tzvp.gbs 
    atoms 8, 15, 20                                              entry N          line   156 file /Users/hoyoun/micromamba/envs/psi4env/share/psi4/basis/def2-tzvp.gbs 

   => B3LYP-D3(BJ): Empirical Dispersion <=

    Grimme's -D3 (BJ-damping) Dispersion Correction
    Grimme S.; Ehrlich S.; Goerigk L. (2011), J. Comput. Chem., 32: 1456

        s6 =       1.000000
        s8 =       1.988900
        a1 =       0.398100
        a2 =       4.421100


         ---------------------------------------------------------
                                   SCF
               by Justin Turney, Rob Parrish, Andy Simmonett
                          and Daniel G. A. Smith
                              RKS Reference
                        8 Threads,   2861 MiB Core
         ---------------------------------------------------------

  ==> Geometry <==

    Molecular point group: c1
    Full point group: C1

    Geometry (in Angstrom), charge = 0, multiplicity = 1:

       Center              X                  Y                   Z               Mass       
    ------------   -----------------  -----------------  -----------------  -----------------
         O           -3.904918938138     1.619540548512     0.463216218496    15.994914619570
         C           -3.646918936868     0.465540542832     0.214216217271    12.000000000000
         O           -4.119918939196    -0.549459462164     0.943216220859    15.994914619570
         H           -3.805918937651    -1.398459466342     0.550216218924     1.007825032230
         C           -2.768918932547     0.053540540804    -0.964783788532    12.000000000000
         H           -2.427918930869     0.952540545229    -1.464783790993     1.007825032230
         H           -3.371918935515    -0.541459462124    -1.652783791918     1.007825032230
         N           -1.608918926838    -0.732459463064    -0.581783786647    14.003074004430
         H           -0.717918922452    -0.274459460810    -0.461783786057     1.007825032230
         C           -1.719918927384    -2.026459469433    -0.239783784964    12.000000000000
         O           -2.807918932739    -2.611459472312    -0.175783784649    15.994914619570
         C           -0.432918921050    -2.760459473046     0.083216216626    12.000000000000
         H           -0.491918921340    -3.734459477840    -0.401783785761     1.007825032230
         H           -0.402918920902    -2.924459473853     1.160216221927     1.007825032230
         N            0.760081084822    -2.047459469537    -0.279783785161    14.003074004430
         H            1.073081086363    -1.969459469153    -1.237783789876     1.007825032230
         C            1.648081089193    -1.609459467381     0.649216219412    12.000000000000
         O            1.518081088553    -1.766459468154     1.856216225352    15.994914619570
         C            2.824081094981    -0.828459463537     0.063216216527    12.000000000000
         N            2.736081094547    -0.750459463153    -1.394783790649    14.003074004430
         H            2.231081092062     0.087540540971    -1.662783791968     1.007825032230
         H            3.661081099100    -0.674459462779    -1.797783792632     1.007825032230
         H            3.720081099390    -1.392459466313     0.323216217807     1.007825032230
         C            2.881081095261     0.539540543196     0.776216220037    12.000000000000
         H            3.022081095955     0.360540542315     1.841216225278     1.007825032230
         H            3.747081099523     1.085540545883     0.399216218181     1.007825032230
         C            1.621081089060     1.326540547069     0.547216218909    12.000000000000
         C            0.538081083729     1.203540546464     1.429216223250    12.000000000000
         H            0.639081084226     0.570540543349     2.301216227542     1.007825032230
         C           -0.655918922147     1.881540549801     1.191216222079    12.000000000000
         H           -1.482918926218     1.784540549324     1.882216225480     1.007825032230
         C           -0.793918922826     2.689540553778     0.062216216522    12.000000000000
         H           -1.728918927428     3.202540556303    -0.115783784354     1.007825032230
         C            0.279081082455     2.830540554472    -0.815783787799    12.000000000000
         H            0.192081082026     3.473540557637    -1.681783792061     1.007825032230
         C            1.478081088356     2.157540551159    -0.570783786593    12.000000000000
         H            2.321081092505     2.307540551898    -1.235783789866     1.007825032230

  Running in c1 symmetry.

  Rotational constants: A =      0.01575  B =      0.00968  C =      0.00711 [cm^-1]
  Rotational constants: A =    472.21904  B =    290.34361  C =    213.08424 [MHz]
  Nuclear repulsion = 1662.090402061925715

  Charge       = 0
  Multiplicity = 1
  Electrons    = 148
  Nalpha       = 74
  Nbeta        = 74

  ==> Algorithm <==

  SCF Algorithm Type is DF.
  DIIS enabled.
  MOM disabled.
  Fractional occupation disabled.
  Guess Type is SAD.
  Energy threshold   = 1.00e-08
  Density threshold  = 1.00e-06
  Integral threshold = 1.00e-12

  ==> Primary Basis <==

  Basis Set: DEF2-TZVP
    Blend: DEF2-TZVP
    Number of shells: 288
    Number of basis functions: 722
    Number of Cartesian functions: 822
    Spherical Harmonics?: true
    Max angular momentum: 3

  ==> DFT Potential <==

   => LibXC <=

    Version 7.1.2
    S. Lehtola, C. Steigemann, M. J. T. Oliveira, and M. A. L. Marques,  SoftwareX 7, 1–5 (2018) (10.1016/j.softx.2017.11.002)

   => Composite Functional: B3LYP-D3BJ2B <= 

    B3LYP-d3bj2b Hyb-GGA Exchange-Correlation Functional

    P. J. Stephens, F. J. Devlin, C. F. Chabalowski, and M. J. Frisch,  J. Phys. Chem. 98, 11623 (1994) (10.1021/j100096a001)

    Deriv               =              1
    GGA                 =           TRUE
    Meta                =          FALSE

    Exchange Hybrid     =           TRUE
    MP2 Hybrid          =          FALSE

   => Exchange Functionals <=

    0.0800   Slater exchange
    0.7200         Becke 88

   => Exact (HF) Exchange <=

    0.2000               HF 

   => Correlation Functionals <=

    0.1900   Vosko, Wilk & Nusair (VWN5_RPA)
    0.8100   Lee, Yang & Parr

   => LibXC Density Thresholds  <==

    XC_HYB_GGA_XC_B3LYP:  1.00E-15 

   => Molecular Quadrature <=

    Radial Scheme          =       TREUTLER
    Pruning Scheme         =           NONE
    Nuclear Scheme         =       TREUTLER

    Blocking Scheme        =         OCTREE
    BS radius alpha        =              1
    Pruning alpha          =              1
    Radial Points          =             75
    Spherical Points       =            302
    Total Points           =         755416
    Total Blocks           =           5370
    Max Points             =            256
    Max Functions          =            552
    Weights Tolerance      =       1.00E-15

   => Loading Basis Set <=

    Name: (DEF2-TZVP AUX)
    Role: JKFIT
    Keyword: DF_BASIS_SCF
    atoms 1, 3, 11, 18                                           entry O          line   318 file /Users/hoyoun/micromamba/envs/psi4env/share/psi4/basis/def2-universal-jkfit.gbs 
    atoms 2, 5, 10, 12, 17, 19, 24, 27-28, 30, 32, 34, 36        entry C          line   198 file /Users/hoyoun/micromamba/envs/psi4env/share/psi4/basis/def2-universal-jkfit.gbs 
    atoms 4, 6-7, 9, 13-14, 16, 21-23, 25-26, 29, 31, 33, 35, 37 entry H          line    18 file /Users/hoyoun/micromamba/envs/psi4env/share/psi4/basis/def2-universal-jkfit.gbs 
    atoms 8, 15, 20                                              entry N          line   258 file /Users/hoyoun/micromamba/envs/psi4env/share/psi4/basis/def2-universal-jkfit.gbs 

  ==> Integral Setup <==

  ==> DiskDFJK: Density-Fitted J/K Matrices <==

    J tasked:                  Yes
    K tasked:                  Yes
    wK tasked:                  No
    OpenMP threads:              8
    Integrals threads:           8
    Memory [MiB]:             1931
    Algorithm:                Disk
    Integral Cache:           NONE
    Schwarz Cutoff:          1E-12
    Fitting Condition:       1E-10

   => Auxiliary Basis Set <=

  Basis Set: (DEF2-TZVP AUX)
    Blend: DEF2-UNIVERSAL-JKFIT
    Number of shells: 602
    Number of basis functions: 1820
    Number of Cartesian functions: 2148
    Spherical Harmonics?: true
    Max angular momentum: 4

  Cached 2.7% of DFT collocation blocks in 0.220 [GiB].

  Minimum eigenvalue in the overlap matrix is 6.6762237698E-06.
  Reciprocal condition number of the overlap matrix is 6.0278102665E-07.
    Using symmetric orthogonalization.

  ==> Pre-Iterations <==

  SCF Guess: Superposition of Atomic Densities via on-the-fly atomic UHF (no occupation information).

   -------------------------
    Irrep   Nso     Nmo    
   -------------------------
     A        722     722 
   -------------------------
    Total     722     722
   -------------------------

  ==> Iterations <==

                           Total Energy        Delta E     RMS |[F,P]|

   @DF-RKS iter SAD:  -970.51240815438916   -9.70512e+02   0.00000e+00 
   @DF-RKS iter   1:  -969.86987150870095    6.42537e-01   2.50144e-03 DIIS/ADIIS
   @DF-RKS iter   2:  -968.93334984702233    9.36522e-01   3.19479e-03 DIIS/ADIIS
   @DF-RKS iter   3:  -971.24260829311459   -2.30926e+00   4.98892e-04 DIIS/ADIIS
   @DF-RKS iter   4:  -971.28162221852949   -3.90139e-02   2.68490e-04 DIIS/ADIIS
   @DF-RKS iter   5:  -971.29461063289205   -1.29884e-02   1.00444e-04 DIIS/ADIIS
   @DF-RKS iter   6:  -971.29661408536469   -2.00345e-03   2.33962e-05 DIIS
   @DF-RKS iter   7:  -971.29671192429953   -9.78389e-05   8.60283e-06 DIIS
   @DF-RKS iter   8:  -971.29672839448926   -1.64702e-05   3.00106e-06 DIIS
   @DF-RKS iter   9:  -971.29673038105614   -1.98657e-06   8.89272e-07 DIIS
   @DF-RKS iter  10:  -971.29673054194882   -1.60893e-07   2.75152e-07 DIIS
   @DF-RKS iter  11:  -971.29673055474325   -1.27944e-08   1.21643e-07 DIIS
   @DF-RKS iter  12:  -971.29673055773458   -2.99133e-09   3.92230e-08 DIIS
  Energy and wave function converged.


  ==> Post-Iterations <==

   Electrons on quadrature grid:
      Ntotal   =  147.9994392524 ; deviation = -5.607e-04 

    Orbital Energies [Eh]
    ---------------------

    Doubly Occupied:                                                      

       1A    -19.159447     2A    -19.124222     3A    -19.111523  
       4A    -19.107612     5A    -14.374101     6A    -14.360512  
       7A    -14.333354     8A    -10.304410     9A    -10.301887  
      10A    -10.286447    11A    -10.237101    12A    -10.235123  
      13A    -10.234416    14A    -10.202092    15A    -10.195190  
      16A    -10.194656    17A    -10.193723    18A    -10.187863  
      19A    -10.186981    20A    -10.186799    21A     -1.101501  
      22A     -1.069782    23A     -1.056591    24A     -1.017946  
      25A     -0.965769    26A     -0.949367    27A     -0.924292  
      28A     -0.876188    29A     -0.801900    30A     -0.785049  
      31A     -0.764015    32A     -0.747376    33A     -0.731856  
      34A     -0.667781    35A     -0.628318    36A     -0.625053  
      37A     -0.609130    38A     -0.607627    39A     -0.596909  
      40A     -0.573026    41A     -0.558134    42A     -0.535715  
      43A     -0.525834    44A     -0.522681    45A     -0.511213  
      46A     -0.489103    47A     -0.480884    48A     -0.477545  
      49A     -0.468059    50A     -0.462735    51A     -0.453519  
      52A     -0.447836    53A     -0.442503    54A     -0.439348  
      55A     -0.434424    56A     -0.429392    57A     -0.415115  
      58A     -0.412463    59A     -0.395520    60A     -0.393597  
      61A     -0.387959    62A     -0.387187    63A     -0.381615  
      64A     -0.357552    65A     -0.351954    66A     -0.320651  
      67A     -0.314588    68A     -0.306776    69A     -0.303425  
      70A     -0.278366    71A     -0.276183    72A     -0.272537  
      73A     -0.268966    74A     -0.262789  

    Virtual:                                                              

      75A     -0.036685    76A     -0.033211    77A     -0.017466  
      78A     -0.008314    79A     -0.002374    80A      0.009109  
      81A      0.033158    82A      0.039137    83A      0.047656  
      84A      0.055305    85A      0.061245    86A      0.069406  
      87A      0.076442    88A      0.082797    89A      0.091897  
      90A      0.103116    91A      0.105620    92A      0.107878  
      93A      0.119335    94A      0.121412    95A      0.122321  
      96A      0.129179    97A      0.134546    98A      0.137767  
      99A      0.141000   100A      0.147314   101A      0.152281  
     102A      0.158576   103A      0.163913   104A      0.174585  
     105A      0.183348   106A      0.188310   107A      0.194691  
     108A      0.202922   109A      0.205048   110A      0.219368  
     111A      0.221605   112A      0.226573   113A      0.229906  
     114A      0.233717   115A      0.239055   116A      0.242250  
     117A      0.252784   118A      0.263133   119A      0.272077  
     120A      0.273198   121A      0.274963   122A      0.282482  
     123A      0.285759   124A      0.289928   125A      0.293549  
     126A      0.298525   127A      0.301037   128A      0.309615  
     129A      0.317029   130A      0.323051   131A      0.324935  
     132A      0.333413   133A      0.339472   134A      0.343037  
     135A      0.347900   136A      0.353234   137A      0.355169  
     138A      0.360176   139A      0.361787   140A      0.373472  
     141A      0.374250   142A      0.380149   143A      0.387600  
     144A      0.391022   145A      0.392857   146A      0.395633  
     147A      0.402807   148A      0.407300   149A      0.408770  
     150A      0.411041   151A      0.417184   152A      0.421949  
     153A      0.430855   154A      0.433728   155A      0.442416  
     156A      0.443972   157A      0.448811   158A      0.451267  
     159A      0.456286   160A      0.463307   161A      0.467530  
     162A      0.471212   163A      0.475337   164A      0.480278  
     165A      0.483590   166A      0.489084   167A      0.498230  
     168A      0.502184   169A      0.507040   170A      0.511057  
     171A      0.515650   172A      0.519403   173A      0.528797  
     174A      0.536323   175A      0.544118   176A      0.548285  
     177A      0.553818   178A      0.559675   179A      0.568794  
     180A      0.571602   181A      0.576556   182A      0.586284  
     183A      0.595413   184A      0.596606   185A      0.607913  
     186A      0.615001   187A      0.623603   188A      0.632611  
     189A      0.638348   190A      0.654675   191A      0.658928  
     192A      0.663569   193A      0.667076   194A      0.671550  
     195A      0.679045   196A      0.693285   197A      0.698443  
     198A      0.707188   199A      0.714696   200A      0.722226  
     201A      0.732560   202A      0.735782   203A      0.738622  
     204A      0.745488   205A      0.750467   206A      0.759909  
     207A      0.770373   208A      0.779505   209A      0.788076  
     210A      0.796502   211A      0.805439   212A      0.808189  
     213A      0.818180   214A      0.824597   215A      0.830986  
     216A      0.841420   217A      0.848119   218A      0.862984  
     219A      0.867716   220A      0.871615   221A      0.878725  
     222A      0.880982   223A      0.888295   224A      0.894367  
     225A      0.910054   226A      0.914493   227A      0.918770  
     228A      0.932130   229A      0.946619   230A      0.949700  
     231A      0.954951   232A      0.967176   233A      0.984208  
     234A      0.986765   235A      1.000810   236A      1.004955  
     237A      1.018512   238A      1.023485   239A      1.032469  
     240A      1.046927   241A      1.051482   242A      1.068989  
     243A      1.076630   244A      1.091598   245A      1.098757  
     246A      1.109247   247A      1.114994   248A      1.117663  
     249A      1.123410   250A      1.130697   251A      1.141457  
     252A      1.142066   253A      1.165472   254A      1.179474  
     255A      1.192902   256A      1.201144   257A      1.212107  
     258A      1.216298   259A      1.218774   260A      1.232019  
     261A      1.240813   262A      1.258317   263A      1.263925  
     264A      1.272498   265A      1.282225   266A      1.288011  
     267A      1.294191   268A      1.300372   269A      1.319337  
     270A      1.326218   271A      1.332759   272A      1.338952  
     273A      1.349039   274A      1.360658   275A      1.367876  
     276A      1.379532   277A      1.382071   278A      1.395232  
     279A      1.400005   280A      1.412138   281A      1.417725  
     282A      1.425519   283A      1.431905   284A      1.435837  
     285A      1.443932   286A      1.448955   287A      1.465866  
     288A      1.472990   289A      1.481373   290A      1.488843  
     291A      1.491319   292A      1.495817   293A      1.511920  
     294A      1.516290   295A      1.529301   296A      1.538214  
     297A      1.549143   298A      1.555755   299A      1.560403  
     300A      1.569811   301A      1.574520   302A      1.580269  
     303A      1.589980   304A      1.597242   305A      1.614116  
     306A      1.618903   307A      1.629041   308A      1.638695  
     309A      1.647715   310A      1.654443   311A      1.658681  
     312A      1.678109   313A      1.681482   314A      1.685675  
     315A      1.688182   316A      1.698240   317A      1.705787  
     318A      1.717056   319A      1.717607   320A      1.731071  
     321A      1.735266   322A      1.761229   323A      1.762442  
     324A      1.775726   325A      1.782677   326A      1.788726  
     327A      1.806315   328A      1.809040   329A      1.817447  
     330A      1.829637   331A      1.836110   332A      1.846007  
     333A      1.850581   334A      1.871050   335A      1.877597  
     336A      1.894278   337A      1.895177   338A      1.899302  
     339A      1.910555   340A      1.919503   341A      1.929613  
     342A      1.941516   343A      1.947569   344A      1.951917  
     345A      1.969161   346A      1.971083   347A      1.978290  
     348A      1.994803   349A      2.004355   350A      2.015074  
     351A      2.017638   352A      2.030365   353A      2.034744  
     354A      2.047769   355A      2.067200   356A      2.071853  
     357A      2.079328   358A      2.086801   359A      2.092147  
     360A      2.108451   361A      2.117759   362A      2.128973  
     363A      2.135322   364A      2.147571   365A      2.153431  
     366A      2.160046   367A      2.168853   368A      2.180164  
     369A      2.184055   370A      2.209858   371A      2.212486  
     372A      2.223476   373A      2.226159   374A      2.245367  
     375A      2.256276   376A      2.261403   377A      2.265109  
     378A      2.280063   379A      2.286921   380A      2.294534  
     381A      2.297035   382A      2.316217   383A      2.325063  
     384A      2.340024   385A      2.348388   386A      2.371411  
     387A      2.378256   388A      2.386831   389A      2.393843  
     390A      2.404168   391A      2.427490   392A      2.439725  
     393A      2.457428   394A      2.462559   395A      2.475579  
     396A      2.484807   397A      2.494593   398A      2.514145  
     399A      2.519050   400A      2.523318   401A      2.531218  
     402A      2.532531   403A      2.544242   404A      2.549341  
     405A      2.560389   406A      2.563149   407A      2.576879  
     408A      2.585876   409A      2.598220   410A      2.599804  
     411A      2.614496   412A      2.619017   413A      2.624366  
     414A      2.633906   415A      2.637457   416A      2.646447  
     417A      2.649641   418A      2.656645   419A      2.663789  
     420A      2.680127   421A      2.685608   422A      2.696506  
     423A      2.699154   424A      2.703404   425A      2.712003  
     426A      2.721150   427A      2.731338   428A      2.735894  
     429A      2.745654   430A      2.755667   431A      2.759991  
     432A      2.768971   433A      2.781974   434A      2.792506  
     435A      2.798087   436A      2.809410   437A      2.810609  
     438A      2.819381   439A      2.822260   440A      2.833106  
     441A      2.837309   442A      2.844619   443A      2.854767  
     444A      2.860132   445A      2.865212   446A      2.881886  
     447A      2.897477   448A      2.909804   449A      2.913642  
     450A      2.924145   451A      2.926041   452A      2.939295  
     453A      2.952041   454A      2.956899   455A      2.963842  
     456A      2.973878   457A      2.975257   458A      2.995328  
     459A      2.998461   460A      3.008662   461A      3.015305  
     462A      3.035689   463A      3.039259   464A      3.048431  
     465A      3.051303   466A      3.057959   467A      3.072132  
     468A      3.080061   469A      3.090037   470A      3.101114  
     471A      3.112586   472A      3.116909   473A      3.124142  
     474A      3.132819   475A      3.133564   476A      3.149324  
     477A      3.151617   478A      3.157570   479A      3.167223  
     480A      3.173765   481A      3.175043   482A      3.180623  
     483A      3.190916   484A      3.194377   485A      3.205738  
     486A      3.213828   487A      3.224494   488A      3.235786  
     489A      3.243084   490A      3.247114   491A      3.259061  
     492A      3.263061   493A      3.270914   494A      3.272210  
     495A      3.283524   496A      3.287300   497A      3.294955  
     498A      3.300349   499A      3.304688   500A      3.313091  
     501A      3.315286   502A      3.326525   503A      3.333571  
     504A      3.343270   505A      3.355586   506A      3.360072  
     507A      3.361374   508A      3.377214   509A      3.390589  
     510A      3.396077   511A      3.396455   512A      3.403004  
     513A      3.409722   514A      3.421964   515A      3.429438  
     516A      3.435652   517A      3.448533   518A      3.459737  
     519A      3.468051   520A      3.468727   521A      3.484375  
     522A      3.487735   523A      3.494906   524A      3.498583  
     525A      3.504282   526A      3.522555   527A      3.534364  
     528A      3.543396   529A      3.553837   530A      3.559147  
     531A      3.563604   532A      3.572336   533A      3.584989  
     534A      3.598442   535A      3.610596   536A      3.634220  
     537A      3.646189   538A      3.660294   539A      3.681513  
     540A      3.686738   541A      3.710308   542A      3.711725  
     543A      3.720789   544A      3.744426   545A      3.750833  
     546A      3.764576   547A      3.784834   548A      3.795388  
     549A      3.806426   550A      3.810699   551A      3.821882  
     552A      3.831655   553A      3.846100   554A      3.855261  
     555A      3.879562   556A      3.897869   557A      3.921225  
     558A      3.926871   559A      3.937977   560A      3.948807  
     561A      3.952896   562A      3.977232   563A      3.982992  
     564A      4.001061   565A      4.020341   566A      4.029905  
     567A      4.039075   568A      4.068076   569A      4.071442  
     570A      4.107873   571A      4.111630   572A      4.124334  
     573A      4.150056   574A      4.158578   575A      4.165647  
     576A      4.177258   577A      4.193459   578A      4.199784  
     579A      4.210605   580A      4.217841   581A      4.234327  
     582A      4.244354   583A      4.249548   584A      4.271877  
     585A      4.278296   586A      4.301463   587A      4.302617  
     588A      4.313833   589A      4.330457   590A      4.342407  
     591A      4.364094   592A      4.372480   593A      4.387106  
     594A      4.415619   595A      4.448379   596A      4.467890  
     597A      4.485091   598A      4.512508   599A      4.525468  
     600A      4.550280   601A      4.575498   602A      4.584171  
     603A      4.595377   604A      4.651583   605A      4.662133  
     606A      4.666455   607A      4.698634   608A      4.704929  
     609A      4.721638   610A      4.741386   611A      4.755879  
     612A      4.766027   613A      4.776638   614A      4.805186  
     615A      4.820572   616A      4.833205   617A      4.861015  
     618A      4.861676   619A      4.873306   620A      4.906835  
     621A      4.947467   622A      4.965028   623A      4.972137  
     624A      4.997597   625A      5.032895   626A      5.044024  
     627A      5.069452   628A      5.102083   629A      5.111023  
     630A      5.116568   631A      5.149170   632A      5.164009  
     633A      5.165798   634A      5.174389   635A      5.179441  
     636A      5.194753   637A      5.198431   638A      5.207205  
     639A      5.219439   640A      5.228021   641A      5.235639  
     642A      5.260655   643A      5.293395   644A      5.309146  
     645A      5.331723   646A      5.347684   647A      5.358829  
     648A      5.363373   649A      5.371189   650A      5.392257  
     651A      5.415948   652A      5.429214   653A      5.439877  
     654A      5.476031   655A      5.499179   656A      5.518651  
     657A      5.554939   658A      5.563214   659A      5.598781  
     660A      5.599735   661A      5.615802   662A      5.664462  
     663A      5.671691   664A      5.682343   665A      5.704817  
     666A      5.806179   667A      5.820487   668A      5.876509  
     669A      5.915508   670A      5.961591   671A      5.993341  
     672A      6.005732   673A      6.073582   674A      6.146322  
     675A      6.172651   676A      6.180227   677A      6.297154  
     678A      6.357264   679A      6.362885   680A      6.380194  
     681A      6.432105   682A      6.459371   683A      6.496141  
     684A      6.537283   685A      6.571998   686A      6.620995  
     687A      6.689935   688A      6.722565   689A      6.738245  
     690A      6.753408   691A      6.777858   692A      6.831232  
     693A      6.848565   694A      6.859156   695A      6.986206  
     696A      7.066626   697A      7.079720   698A      7.088142  
     699A      7.111725   700A      7.122629   701A      7.139058  
     702A      7.316954   703A     22.243490   704A     22.521901  
     705A     22.535109   706A     22.566391   707A     22.587026  
     708A     22.617938   709A     22.694197   710A     22.738908  
     711A     22.809249   712A     23.202834   713A     23.268585  
     714A     23.339682   715A     23.356806   716A     32.068206  
     717A     32.493638   718A     32.563476   719A     43.861114  
     720A     43.886205   721A     43.915326   722A     44.010300  

    Final Occupation by Irrep:
              A 
    DOCC [    74 ]
    NA   [    74 ]
    NB   [    74 ]

  @DF-RKS Final Energy:  -971.29673055773458

   => Energetics <=

    Nuclear Repulsion Energy =           1662.0904020619257153
    One-Electron Energy =               -4624.9154144516824090
    Two-Electron Energy =                2098.6705122213511459
    DFT Exchange-Correlation Energy =    -107.0587510808704792
    Empirical Dispersion Energy =          -0.0834793084580509
    VV10 Nonlocal Energy =                  0.0000000000000000
    Total Energy =                       -971.2967305577343495

Computation Completed


Properties will be evaluated at   0.000000,   0.000000,   0.000000 [a0]

Properties computed using the SCF density matrix


 Multipole Moments:

 ------------------------------------------------------------------------------------
     Multipole            Electronic (a.u.)      Nuclear  (a.u.)        Total (a.u.)
 ------------------------------------------------------------------------------------

 L = 1.  Multiply by 2.5417464519 to convert [e a0] to [Debye]
 Dipole X            :         92.4572882          -89.9963174            2.4609708
 Dipole Y            :         27.9119403          -27.8205482            0.0913921
 Dipole Z            :        -40.1633171           38.1611296           -2.0021876
 Magnitude           :                                                    3.1738754

 ------------------------------------------------------------------------------------

*** tstop() called on choehoyun-ui-MacBookAir.local at Sun Aug  9 15:38:04 2026
Module time:
	user time   =     583.54 seconds =       9.73 minutes
	system time =      12.53 seconds =       0.21 minutes
	total time  =         93 seconds =       1.55 minutes
Total time:
	user time   =     583.54 seconds =       9.73 minutes
	system time =      12.53 seconds =       0.21 minutes
	total time  =         93 seconds =       1.55 minutes

    Psi4 stopped on: Sunday, 09 August 2026 03:38PM
    Psi4 wall time for execution: 0:01:32.69

*** Psi4 exiting successfully. Buy a developer a beer!
