
    -----------------------------------------------------------------------
          Psi4: An Open-Source Ab Initio Electronic Structure Package
                               Psi4 1.11 release

                         Git: Rev {} zzzzzzz 


    D. G. A. Smith, L. A. Burns, A. C. Simmonett, R. M. Parrish,
    M. C. Schieber, R. Galvelis, P. Kraus, H. Kruse, R. Di Remigio,
    A. Alenaizan, A. M. James, S. Lehtola, J. P. Misiewicz, M. Scheurer,
    R. A. Shaw, J. B. Schriber, Y. Xie, Z. L. Glick, D. A. Sirianni,
    J. S. O'Brien, J. M. Waldrop, A. Kumar, E. G. Hohenstein,
    B. P. Pritchard, B. R. Brooks, H. F. Schaefer III, A. Yu. Sokolov,
    K. Patkowski, A. E. DePrince III, U. Bozkaya, R. A. King,
    F. A. Evangelista, J. M. Turney, T. D. Crawford, C. D. Sherrill,
    J. Chem. Phys. 152(18) 184108 (2020). https://doi.org/10.1063/5.0006002

                            Additional Code Authors
    E. T. Seidl, C. L. Janssen, E. F. Valeev, M. L. Leininger,
    J. F. Gonthier, R. M. Richard, H. R. McAlexander, M. Saitow, X. Wang,
    P. Verma, M. H. Lechner, A. Jiang, S. Behnle, A. G. Heide,
    M. F. Herbst, D. L. Poole, T. Győri, E. C. Mitchell, J. P. Pederson,
    and A. M. Wallace

             Previous Authors, Complete List of Code Contributors,
                       and Citations for Specific Modules
    https://github.com/psi4/psi4/blob/master/codemeta.json
    https://github.com/psi4/psi4/graphs/contributors
    https://psicode.org/psi4manual/master/introduction.html#citing-psifour

    -----------------------------------------------------------------------


    Psi4 started on: Sunday, 09 August 2026 01:10AM

    Process ID: 41207
    Host:       choehoyun-ui-MacBookAir.local
    PSIDATADIR: /Users/hoyoun/micromamba/envs/psi4env/share/psi4
    Memory:     500.0 MiB
    Threads:    1
    Addons:     a̶d̶c̶c̶, a̶m̶b̶i̶t̶, b̶s̶e̶, c̶c̶t̶3̶, c̶f̶o̶u̶r̶, c̶h̶e̶m̶p̶s̶2̶, c̶p̶p̶e̶, d̶d̶x̶, dftd3,
                d̶f̶t̶d̶4̶, dkh, ecpint, einsums, f̶o̶r̶t̶e̶, gauxc, g̶c̶p̶, g̶d̶m̶a̶,
                g̶e̶o̶m̶e̶t̶r̶i̶c̶, g̶p̶u̶_̶d̶f̶c̶c̶, i̶n̶t̶e̶g̶r̶a̶t̶o̶r̶x̶x̶, i̶p̶i̶,
                l̶i̶b̶e̶f̶p̶, m̶d̶i̶, m̶p̶2̶d̶, m̶r̶c̶c̶, ooo, o̶p̶e̶n̶f̶e̶r̶m̶i̶o̶n̶p̶s̶i̶4̶,
                pcmsolver, p̶s̶i̶4̶f̶o̶c̶k̶c̶i̶, p̶s̶i̶x̶a̶s̶, p̶y̶e̶i̶n̶s̶u̶m̶s̶, r̶e̶s̶p̶,
                s̶i̶m̶i̶n̶t̶, s̶n̶s̶m̶p̶2̶, v̶2̶r̶d̶m̶_̶c̶a̶s̶s̶c̶f̶

  ==> Input File <==

--------------------------------------------------------------------------
memory 6 GB
molecule mol {
0 1
N 0.11964144790169 1.30318476466602 0.00000000000000
C -1.21256767109930 1.34635093658372 0.00000000000000
C -2.02187633734016 0.21462724741659 0.00000000000000
C -1.40222595426392 -1.02845573810863 0.00000000000000
C -0.01399652983724 -1.08509924001393 0.00000000000000
C 0.71950786686714 0.10412514100327 0.00000000000000
C 2.22407439973822 0.10727367895728 0.00000000000000
H -1.65523828668084 2.33808720751895 0.00000000000000
H -3.10030215518757 0.31033765550231 0.00000000000000
H -1.98887994389961 -1.93975513661187 0.00000000000000
H 0.49959723912410 -2.03877926088730 0.00000000000000
H 2.63114668453021 -0.90452143801387 0.00000000000000
H 2.60055962007364 0.63631209099374 -0.87842023733926
H 2.60055962007364 0.63631209099374 0.87842023733926
units angstrom
no_reorient
no_com
}
set basis def2-TZVP
set scf_type df
set freeze_core true
energy('b3lyp-d3bj')
--------------------------------------------------------------------------

  Memory set to   5.588 GiB by Python driver.

Scratch directory: /tmp/
   => Libint2 <=

    Primary   basis highest AM E, G, H:  7, 6, 3
    Auxiliary basis highest AM E, G, H:  7, 7, 4
    Onebody   basis highest AM E, G, H:  -, -, -
    Solid Harmonics ordering:            Gaussian

*** tstart() called on choehoyun-ui-MacBookAir.local
*** at Sun Aug  9 01:10:21 2026

   => Loading Basis Set <=

    Name: DEF2-TZVP
    Role: ORBITAL
    Keyword: BASIS
    atoms 1    entry N          line   156 file /Users/hoyoun/micromamba/envs/psi4env/share/psi4/basis/def2-tzvp.gbs 
    atoms 2-7  entry C          line   123 file /Users/hoyoun/micromamba/envs/psi4env/share/psi4/basis/def2-tzvp.gbs 
    atoms 8-14 entry H          line    15 file /Users/hoyoun/micromamba/envs/psi4env/share/psi4/basis/def2-tzvp.gbs 

   => B3LYP-D3(BJ): Empirical Dispersion <=

    Grimme's -D3 (BJ-damping) Dispersion Correction
    Grimme S.; Ehrlich S.; Goerigk L. (2011), J. Comput. Chem., 32: 1456

        s6 =       1.000000
        s8 =       1.988900
        a1 =       0.398100
        a2 =       4.421100


         ---------------------------------------------------------
                                   SCF
               by Justin Turney, Rob Parrish, Andy Simmonett
                          and Daniel G. A. Smith
                              RKS Reference
                        1 Threads,   5722 MiB Core
         ---------------------------------------------------------

  ==> Geometry <==

    Molecular point group: cs
    Full point group: Cs

    Geometry (in Angstrom), charge = 0, multiplicity = 1:

       Center              X                  Y                   Z               Mass       
    ------------   -----------------  -----------------  -----------------  -----------------
         N            0.119641447902     1.303184764666     0.000000000000    14.003074004430
         C           -1.212567671099     1.346350936584     0.000000000000    12.000000000000
         C           -2.021876337340     0.214627247417     0.000000000000    12.000000000000
         C           -1.402225954264    -1.028455738109     0.000000000000    12.000000000000
         C           -0.013996529837    -1.085099240014     0.000000000000    12.000000000000
         C            0.719507866867     0.104125141003     0.000000000000    12.000000000000
         C            2.224074399738     0.107273678957     0.000000000000    12.000000000000
         H           -1.655238286681     2.338087207519     0.000000000000     1.007825032230
         H           -3.100302155188     0.310337655502     0.000000000000     1.007825032230
         H           -1.988879943900    -1.939755136612     0.000000000000     1.007825032230
         H            0.499597239124    -2.038779260887     0.000000000000     1.007825032230
         H            2.631146684530    -0.904521438014     0.000000000000     1.007825032230
         H            2.600559620074     0.636312090994    -0.878420237339     1.007825032230
         H            2.600559620074     0.636312090994     0.878420237339     1.007825032230

  Running in cs symmetry.

  Rotational constants: A =      0.18751  B =      0.08646  C =      0.05983 [cm^-1]
  Rotational constants: A =   5621.35950  B =   2592.02255  C =   1793.60307 [MHz]
  Nuclear repulsion =  273.046013660065626

  Charge       = 0
  Multiplicity = 1
  Electrons    = 50
  Nalpha       = 25
  Nbeta        = 25

  ==> Algorithm <==

  SCF Algorithm Type is DF.
  DIIS enabled.
  MOM disabled.
  Fractional occupation disabled.
  Guess Type is SAD.
  Energy threshold   = 1.00e-06
  Density threshold  = 1.00e-06
  Integral threshold = 1.00e-12

  ==> Primary Basis <==

  Basis Set: DEF2-TZVP
    Blend: DEF2-TZVP
    Number of shells: 105
    Number of basis functions: 259
    Number of Cartesian functions: 294
    Spherical Harmonics?: true
    Max angular momentum: 3

  ==> DFT Potential <==

   => LibXC <=

    Version 7.1.2
    S. Lehtola, C. Steigemann, M. J. T. Oliveira, and M. A. L. Marques,  SoftwareX 7, 1–5 (2018) (10.1016/j.softx.2017.11.002)

   => Composite Functional: B3LYP-D3BJ2B <= 

    B3LYP-d3bj2b Hyb-GGA Exchange-Correlation Functional

    P. J. Stephens, F. J. Devlin, C. F. Chabalowski, and M. J. Frisch,  J. Phys. Chem. 98, 11623 (1994) (10.1021/j100096a001)

    Deriv               =              1
    GGA                 =           TRUE
    Meta                =          FALSE

    Exchange Hybrid     =           TRUE
    MP2 Hybrid          =          FALSE

   => Exchange Functionals <=

    0.0800   Slater exchange
    0.7200         Becke 88

   => Exact (HF) Exchange <=

    0.2000               HF 

   => Correlation Functionals <=

    0.1900   Vosko, Wilk & Nusair (VWN5_RPA)
    0.8100   Lee, Yang & Parr

   => LibXC Density Thresholds  <==

    XC_HYB_GGA_XC_B3LYP:  1.00E-15 

   => Molecular Quadrature <=

    Radial Scheme          =       TREUTLER
    Pruning Scheme         =           NONE
    Nuclear Scheme         =       TREUTLER

    Blocking Scheme        =         OCTREE
    BS radius alpha        =              1
    Pruning alpha          =              1
    Radial Points          =             75
    Spherical Points       =            302
    Total Points           =         296750
    Total Blocks           =           2246
    Max Points             =            256
    Max Functions          =            250
    Weights Tolerance      =       1.00E-15

   => Loading Basis Set <=

    Name: (DEF2-TZVP AUX)
    Role: JKFIT
    Keyword: DF_BASIS_SCF
    atoms 1    entry N          line   258 file /Users/hoyoun/micromamba/envs/psi4env/share/psi4/basis/def2-universal-jkfit.gbs 
    atoms 2-7  entry C          line   198 file /Users/hoyoun/micromamba/envs/psi4env/share/psi4/basis/def2-universal-jkfit.gbs 
    atoms 8-14 entry H          line    18 file /Users/hoyoun/micromamba/envs/psi4env/share/psi4/basis/def2-universal-jkfit.gbs 

  ==> Integral Setup <==

  DFHelper Memory: AOs need 0.334 GiB; user supplied 2.545 GiB. 
  SCF_SUBTYPE=INCORE selected. In-core MEM_DF algorithm will be used.
  Using in-core AOs.

  ==> MemDFJK: Density-Fitted J/K Matrices <==

    J tasked:                   Yes
    K tasked:                   Yes
    wK tasked:                   No
    OpenMP threads:               1
    Memory [MiB]:              2606
    Algorithm:                 Core
    Schwarz Cutoff:           1E-12
    Mask sparsity (%):       2.9427
    Fitting Condition:        1E-10

   => Auxiliary Basis Set <=

  Basis Set: (DEF2-TZVP AUX)
    Blend: DEF2-UNIVERSAL-JKFIT
    Number of shells: 217
    Number of basis functions: 653
    Number of Cartesian functions: 767
    Spherical Harmonics?: true
    Max angular momentum: 4

  Cached 100.0% of DFT collocation blocks in 1.646 [GiB].

  Minimum eigenvalue in the overlap matrix is 4.2271958184E-05.
  Reciprocal condition number of the overlap matrix is 4.3733794056E-06.
    Using symmetric orthogonalization.

  ==> Pre-Iterations <==

  SCF Guess: Superposition of Atomic Densities via on-the-fly atomic UHF (no occupation information).

   -------------------------
    Irrep   Nso     Nmo    
   -------------------------
     A'       178     178 
     A"        81      81 
   -------------------------
    Total     259     259
   -------------------------

  ==> Iterations <==

                           Total Energy        Delta E     RMS |[F,P]|

   @DF-RKS iter SAD:  -287.17904970070867   -2.87179e+02   0.00000e+00 
   @DF-RKS iter   1:  -287.14955200747795    2.94977e-02   5.45667e-03 ADIIS/DIIS
   @DF-RKS iter   2:  -286.88632094903369    2.63231e-01   6.40735e-03 ADIIS/DIIS
   @DF-RKS iter   3:  -287.72297726912683   -8.36656e-01   8.47172e-04 ADIIS/DIIS
   @DF-RKS iter   4:  -287.72869947922419   -5.72221e-03   6.43096e-04 ADIIS/DIIS
   @DF-RKS iter   5:  -287.73574142248071   -7.04194e-03   1.64770e-04 ADIIS/DIIS
   @DF-RKS iter   6:  -287.73621498563892   -4.73563e-04   4.62769e-05 DIIS
   @DF-RKS iter   7:  -287.73625477062615   -3.97850e-05   1.13482e-05 DIIS
   @DF-RKS iter   8:  -287.73625685323282   -2.08261e-06   5.00326e-06 DIIS
   @DF-RKS iter   9:  -287.73625735703092   -5.03798e-07   1.34080e-06 DIIS
   @DF-RKS iter  10:  -287.73625738921749   -3.21866e-08   4.13189e-07 DIIS
  Energy and wave function converged.


  ==> Post-Iterations <==

   Electrons on quadrature grid:
      Ntotal   =   50.0000192436 ; deviation = 1.924e-05 

    Orbital Energies [Eh]
    ---------------------

    Doubly Occupied:                                                      

       1Ap   -14.309243     2Ap   -10.217038     3Ap   -10.207900  
       4Ap   -10.194175     5Ap   -10.182509     6Ap   -10.182396  
       7Ap   -10.167517     8Ap    -0.945337     9Ap    -0.806818  
      10Ap    -0.785124    11Ap    -0.703848    12Ap    -0.634188  
      13Ap    -0.607853    14Ap    -0.519953    15Ap    -0.492775  
      16Ap    -0.464811     1App   -0.434088    17Ap    -0.424311  
      18Ap    -0.410991    19Ap    -0.385745     2App   -0.381666  
      20Ap    -0.364683     3App   -0.292067     4App   -0.261062  
      21Ap    -0.258982  

    Virtual:                                                              

       5App   -0.035451     6App   -0.018804    22Ap     0.044210  
      23Ap     0.057641    24Ap     0.074752    25Ap     0.095638  
      26Ap     0.101694     7App    0.112338    27Ap     0.122962  
      28Ap     0.136112     8App    0.142905    29Ap     0.153779  
      30Ap     0.181977     9App    0.186807    31Ap     0.206132  
      32Ap     0.213792    10App    0.218522    33Ap     0.232515  
      34Ap     0.255971    11App    0.257858    35Ap     0.265213  
      36Ap     0.284795    12App    0.289444    37Ap     0.320208  
      38Ap     0.339246    13App    0.345262    39Ap     0.350893  
      40Ap     0.357958    14App    0.367958    41Ap     0.385598  
      42Ap     0.396013    43Ap     0.412111    44Ap     0.423804  
      45Ap     0.429591    46Ap     0.446611    47Ap     0.449021  
      15App    0.450129    48Ap     0.476952    16App    0.485998  
      49Ap     0.488257    50Ap     0.506369    51Ap     0.511072  
      52Ap     0.533432    17App    0.542672    53Ap     0.583623  
      54Ap     0.604329    55Ap     0.642461    18App    0.651480  
      56Ap     0.653800    57Ap     0.671732    58Ap     0.685938  
      19App    0.719447    59Ap     0.733643    60Ap     0.744391  
      20App    0.763877    61Ap     0.783326    62Ap     0.815701  
      21App    0.845489    63Ap     0.852341    22App    0.865230  
      64Ap     0.911506    23App    0.927031    65Ap     0.934192  
      66Ap     0.999571    67Ap     1.014686    68Ap     1.040802  
      24App    1.047425    69Ap     1.095071    25App    1.103646  
      26App    1.134476    70Ap     1.134802    71Ap     1.165924  
      72Ap     1.195889    73Ap     1.229328    27App    1.254259  
      74Ap     1.267332    75Ap     1.282162    28App    1.313476  
      76Ap     1.318313    77Ap     1.355747    29App    1.399956  
      78Ap     1.415157    30App    1.434095    79Ap     1.450910  
      80Ap     1.464857    31App    1.488101    81Ap     1.507249  
      82Ap     1.526855    32App    1.532334    83Ap     1.546557  
      33App    1.554908    84Ap     1.587654    34App    1.590442  
      85Ap     1.603971    35App    1.658421    86Ap     1.679521  
      87Ap     1.696283    88Ap     1.702293    36App    1.724464  
      89Ap     1.758949    37App    1.768653    38App    1.792265  
      90Ap     1.818632    91Ap     1.890836    39App    1.914931  
      92Ap     1.948684    93Ap     1.985172    40App    1.997869  
      94Ap     2.004400    41App    2.051540    95Ap     2.063394  
      96Ap     2.086938    97Ap     2.139649    42App    2.139992  
      98Ap     2.190175    99Ap     2.204660   100Ap     2.238159  
     101Ap     2.265334   102Ap     2.274051    43App    2.305825  
      44App    2.344767   103Ap     2.351613   104Ap     2.374487  
     105Ap     2.448284    45App    2.456864    46App    2.498006  
     106Ap     2.514496   107Ap     2.528076    47App    2.532682  
     108Ap     2.591341   109Ap     2.595855   110Ap     2.608643  
     111Ap     2.616608    48App    2.624049    49App    2.674912  
     112Ap     2.682001    50App    2.687169   113Ap     2.719832  
     114Ap     2.727240   115Ap     2.776586    51App    2.799330  
     116Ap     2.799699   117Ap     2.825309    52App    2.852543  
     118Ap     2.859903   119Ap     2.883287   120Ap     2.903966  
      53App    2.930561   121Ap     2.994760   122Ap     3.002413  
      54App    3.014167    55App    3.022737   123Ap     3.035316  
      56App    3.056356    57App    3.083667    58App    3.109101  
     124Ap     3.109843   125Ap     3.143491    59App    3.150612  
     126Ap     3.153678    60App    3.190390   127Ap     3.193345  
      61App    3.204949   128Ap     3.228357   129Ap     3.269737  
      62App    3.296386   130Ap     3.302071   131Ap     3.316576  
      63App    3.324552   132Ap     3.357412   133Ap     3.359292  
      64App    3.366305    65App    3.377990   134Ap     3.426318  
     135Ap     3.430679   136Ap     3.466731    66App    3.488265  
     137Ap     3.558172    67App    3.580139   138Ap     3.616968  
      68App    3.655565   139Ap     3.689134    69App    3.713498  
     140Ap     3.735498   141Ap     3.751119   142Ap     3.810949  
     143Ap     3.848570   144Ap     3.866636    70App    3.898479  
     145Ap     3.952172    71App    3.958478   146Ap     3.988447  
     147Ap     4.032394   148Ap     4.103606   149Ap     4.141118  
      72App    4.151325    73App    4.194069   150Ap     4.225617  
     151Ap     4.267187   152Ap     4.300696    74App    4.358609  
      75App    4.395117   153Ap     4.396045    76App    4.414125  
     154Ap     4.448871   155Ap     4.467986   156Ap     4.555180  
      77App    4.576934   157Ap     4.709691   158Ap     4.719528  
     159Ap     4.742831   160Ap     4.880432    78App    4.894531  
      79App    4.929380   161Ap     4.954957   162Ap     5.016032  
     163Ap     5.050682   164Ap     5.138474   165Ap     5.164622  
      80App    5.250591    81App    5.309381   166Ap     5.402005  
     167Ap     5.422065   168Ap     5.605929   169Ap     5.690352  
     170Ap     5.798696   171Ap     6.103552   172Ap    22.232098  
     173Ap    22.388260   174Ap    22.565404   175Ap    22.620015  
     176Ap    22.879669   177Ap    23.058051   178Ap    32.474091  

    Final Occupation by Irrep:
             Ap   App 
    DOCC [    21,    4 ]
    NA   [    21,    4 ]
    NB   [    21,    4 ]

  @DF-RKS Final Energy:  -287.73625738921749

   => Energetics <=

    Nuclear Repulsion Energy =            273.0460136600656256
    One-Electron Energy =                -927.7324640318722686
    Two-Electron Energy =                 401.0671950131925314
    DFT Exchange-Correlation Energy =     -34.0947989421525790
    Empirical Dispersion Energy =          -0.0222030884508575
    VV10 Nonlocal Energy =                  0.0000000000000000
    Total Energy =                       -287.7362573892174851

Computation Completed


Properties will be evaluated at   0.000000,   0.000000,   0.000000 [a0]

Properties computed using the SCF density matrix


 Multipole Moments:

 ------------------------------------------------------------------------------------
     Multipole            Electronic (a.u.)      Nuclear  (a.u.)        Total (a.u.)
 ------------------------------------------------------------------------------------

 L = 1.  Multiply by 2.5417464519 to convert [e a0] to [Debye]
 Dipole X            :         14.4948960          -14.7730709           -0.2781749
 Dipole Y            :        -12.2266054           11.5523091           -0.6742963
 Dipole Z            :          0.0000000            0.0000000            0.0000000
 Magnitude           :                                                    0.7294222

 ------------------------------------------------------------------------------------

*** tstop() called on choehoyun-ui-MacBookAir.local at Sun Aug  9 01:11:14 2026
Module time:
	user time   =      37.29 seconds =       0.62 minutes
	system time =       6.06 seconds =       0.10 minutes
	total time  =         53 seconds =       0.88 minutes
Total time:
	user time   =      37.29 seconds =       0.62 minutes
	system time =       6.06 seconds =       0.10 minutes
	total time  =         53 seconds =       0.88 minutes

    Psi4 stopped on: Sunday, 09 August 2026 01:11AM
    Psi4 wall time for execution: 0:00:52.73

*** Psi4 exiting successfully. Buy a developer a beer!
