
    -----------------------------------------------------------------------
          Psi4: An Open-Source Ab Initio Electronic Structure Package
                               Psi4 1.11 release

                         Git: Rev {} zzzzzzz 


    D. G. A. Smith, L. A. Burns, A. C. Simmonett, R. M. Parrish,
    M. C. Schieber, R. Galvelis, P. Kraus, H. Kruse, R. Di Remigio,
    A. Alenaizan, A. M. James, S. Lehtola, J. P. Misiewicz, M. Scheurer,
    R. A. Shaw, J. B. Schriber, Y. Xie, Z. L. Glick, D. A. Sirianni,
    J. S. O'Brien, J. M. Waldrop, A. Kumar, E. G. Hohenstein,
    B. P. Pritchard, B. R. Brooks, H. F. Schaefer III, A. Yu. Sokolov,
    K. Patkowski, A. E. DePrince III, U. Bozkaya, R. A. King,
    F. A. Evangelista, J. M. Turney, T. D. Crawford, C. D. Sherrill,
    J. Chem. Phys. 152(18) 184108 (2020). https://doi.org/10.1063/5.0006002

                            Additional Code Authors
    E. T. Seidl, C. L. Janssen, E. F. Valeev, M. L. Leininger,
    J. F. Gonthier, R. M. Richard, H. R. McAlexander, M. Saitow, X. Wang,
    P. Verma, M. H. Lechner, A. Jiang, S. Behnle, A. G. Heide,
    M. F. Herbst, D. L. Poole, T. Győri, E. C. Mitchell, J. P. Pederson,
    and A. M. Wallace

             Previous Authors, Complete List of Code Contributors,
                       and Citations for Specific Modules
    https://github.com/psi4/psi4/blob/master/codemeta.json
    https://github.com/psi4/psi4/graphs/contributors
    https://psicode.org/psi4manual/master/introduction.html#citing-psifour

    -----------------------------------------------------------------------


    Psi4 started on: Monday, 10 August 2026 06:32PM

    Process ID: 75320
    Host:       choehoyun-ui-MacBookAir.local
    PSIDATADIR: /Users/hoyoun/micromamba/envs/psi4env/share/psi4
    Memory:     500.0 MiB
    Threads:    8
    Addons:     a̶d̶c̶c̶, a̶m̶b̶i̶t̶, b̶s̶e̶, c̶c̶t̶3̶, c̶f̶o̶u̶r̶, c̶h̶e̶m̶p̶s̶2̶, c̶p̶p̶e̶, d̶d̶x̶, dftd3,
                d̶f̶t̶d̶4̶, dkh, ecpint, einsums, f̶o̶r̶t̶e̶, gauxc, g̶c̶p̶, g̶d̶m̶a̶,
                g̶e̶o̶m̶e̶t̶r̶i̶c̶, g̶p̶u̶_̶d̶f̶c̶c̶, i̶n̶t̶e̶g̶r̶a̶t̶o̶r̶x̶x̶, i̶p̶i̶,
                l̶i̶b̶e̶f̶p̶, m̶d̶i̶, m̶p̶2̶d̶, m̶r̶c̶c̶, ooo, o̶p̶e̶n̶f̶e̶r̶m̶i̶o̶n̶p̶s̶i̶4̶,
                pcmsolver, p̶s̶i̶4̶f̶o̶c̶k̶c̶i̶, p̶s̶i̶x̶a̶s̶, p̶y̶e̶i̶n̶s̶u̶m̶s̶, r̶e̶s̶p̶,
                s̶i̶m̶i̶n̶t̶, s̶n̶s̶m̶p̶2̶, v̶2̶r̶d̶m̶_̶c̶a̶s̶s̶c̶f̶

  ==> Input File <==

--------------------------------------------------------------------------
memory 3 GB
molecule mol {
0 1
C 0.00000000000000 0.43744196909276 0.00000000000000
C -1.38883790132665 0.82640394110743 0.00000000000000
C -0.49515896499973 1.78772187301932 0.00000000000000
C 0.96338193153024 -0.47044396667721 0.00000000000000
C 0.71722394919646 -1.95178786118587 0.00000000000000
H -2.42873982753551 0.55266296072917 0.00000000000000
H -0.29675897882432 2.84485779815305 0.00000000000000
H 1.99155585879193 -0.12855799093575 0.00000000000000
H 1.15276091790155 -2.43685482674106 0.87855093781564
H -0.35123497492702 -2.17126784592880 0.00000000000000
H 1.15276091790155 -2.43685482674106 -0.87855093781564
units angstrom
no_reorient
no_com
}
set basis def2-SVP
set scf_type df
set freeze_core true
set e_convergence 8
energy('b3lyp-d3bj')
--------------------------------------------------------------------------

  Memory set to   2.794 GiB by Python driver.

Scratch directory: /Users/hoyoun/Documents/Yonsei_AX_Camp/(진짜_이게_최종)/calibration/dft_work/_scratch/R20/
   => Libint2 <=

    Primary   basis highest AM E, G, H:  7, 6, 3
    Auxiliary basis highest AM E, G, H:  7, 7, 4
    Onebody   basis highest AM E, G, H:  -, -, -
    Solid Harmonics ordering:            Gaussian

*** tstart() called on choehoyun-ui-MacBookAir.local
*** at Mon Aug 10 18:33:00 2026

   => Loading Basis Set <=

    Name: DEF2-SVP
    Role: ORBITAL
    Keyword: BASIS
    atoms 1-5  entry C          line    90 file /Users/hoyoun/micromamba/envs/psi4env/share/psi4/basis/def2-svp.gbs 
    atoms 6-11 entry H          line    15 file /Users/hoyoun/micromamba/envs/psi4env/share/psi4/basis/def2-svp.gbs 

   => B3LYP-D3(BJ): Empirical Dispersion <=

    Grimme's -D3 (BJ-damping) Dispersion Correction
    Grimme S.; Ehrlich S.; Goerigk L. (2011), J. Comput. Chem., 32: 1456

        s6 =       1.000000
        s8 =       1.988900
        a1 =       0.398100
        a2 =       4.421100


         ---------------------------------------------------------
                                   SCF
               by Justin Turney, Rob Parrish, Andy Simmonett
                          and Daniel G. A. Smith
                              RKS Reference
                        8 Threads,   2861 MiB Core
         ---------------------------------------------------------

  ==> Geometry <==

    Molecular point group: cs
    Full point group: Cs

    Geometry (in Angstrom), charge = 0, multiplicity = 1:

       Center              X                  Y                   Z               Mass       
    ------------   -----------------  -----------------  -----------------  -----------------
         C            0.000000000000     0.437441969093     0.000000000000    12.000000000000
         C           -1.388837901327     0.826403941107     0.000000000000    12.000000000000
         C           -0.495158965000     1.787721873019     0.000000000000    12.000000000000
         C            0.963381931530    -0.470443966677     0.000000000000    12.000000000000
         C            0.717223949196    -1.951787861186     0.000000000000    12.000000000000
         H           -2.428739827536     0.552662960729     0.000000000000     1.007825032230
         H           -0.296758978824     2.844857798153     0.000000000000     1.007825032230
         H            1.991555858792    -0.128557990936     0.000000000000     1.007825032230
         H            1.152760917902    -2.436854826741     0.878550937816     1.007825032230
         H           -0.351234974927    -2.171267845929     0.000000000000     1.007825032230
         H            1.152760917902    -2.436854826741    -0.878550937816     1.007825032230

  Running in cs symmetry.

  Rotational constants: A =      0.61173  B =      0.10932  C =      0.09436 [cm^-1]
  Rotational constants: A =  18339.18800  B =   3277.39993  C =   2828.92583 [MHz]
  Nuclear repulsion =  146.060828766031364

  Charge       = 0
  Multiplicity = 1
  Electrons    = 36
  Nalpha       = 18
  Nbeta        = 18

  ==> Algorithm <==

  SCF Algorithm Type is DF.
  DIIS enabled.
  MOM disabled.
  Fractional occupation disabled.
  Guess Type is SAD.
  Energy threshold   = 1.00e-08
  Density threshold  = 1.00e-06
  Integral threshold = 1.00e-12

  ==> Primary Basis <==

  Basis Set: DEF2-SVP
    Blend: DEF2-SVP
    Number of shells: 48
    Number of basis functions: 100
    Number of Cartesian functions: 105
    Spherical Harmonics?: true
    Max angular momentum: 2

  ==> DFT Potential <==

   => LibXC <=

    Version 7.1.2
    S. Lehtola, C. Steigemann, M. J. T. Oliveira, and M. A. L. Marques,  SoftwareX 7, 1–5 (2018) (10.1016/j.softx.2017.11.002)

   => Composite Functional: B3LYP-D3BJ2B <= 

    B3LYP-d3bj2b Hyb-GGA Exchange-Correlation Functional

    P. J. Stephens, F. J. Devlin, C. F. Chabalowski, and M. J. Frisch,  J. Phys. Chem. 98, 11623 (1994) (10.1021/j100096a001)

    Deriv               =              1
    GGA                 =           TRUE
    Meta                =          FALSE

    Exchange Hybrid     =           TRUE
    MP2 Hybrid          =          FALSE

   => Exchange Functionals <=

    0.0800   Slater exchange
    0.7200         Becke 88

   => Exact (HF) Exchange <=

    0.2000               HF 

   => Correlation Functionals <=

    0.1900   Vosko, Wilk & Nusair (VWN5_RPA)
    0.8100   Lee, Yang & Parr

   => LibXC Density Thresholds  <==

    XC_HYB_GGA_XC_B3LYP:  1.00E-15 

   => Molecular Quadrature <=

    Radial Scheme          =       TREUTLER
    Pruning Scheme         =           NONE
    Nuclear Scheme         =       TREUTLER

    Blocking Scheme        =         OCTREE
    BS radius alpha        =              1
    Pruning alpha          =              1
    Radial Points          =             75
    Spherical Points       =            302
    Total Points           =         235281
    Total Blocks           =           1813
    Max Points             =            256
    Max Functions          =            100
    Weights Tolerance      =       1.00E-15

   => Loading Basis Set <=

    Name: (DEF2-SVP AUX)
    Role: JKFIT
    Keyword: DF_BASIS_SCF
    atoms 1-5  entry C          line   198 file /Users/hoyoun/micromamba/envs/psi4env/share/psi4/basis/def2-universal-jkfit.gbs 
    atoms 6-11 entry H          line    18 file /Users/hoyoun/micromamba/envs/psi4env/share/psi4/basis/def2-universal-jkfit.gbs 

  ==> Integral Setup <==

  DFHelper Memory: AOs need 0.039 GiB; user supplied 1.561 GiB. 
  SCF_SUBTYPE=INCORE selected. In-core MEM_DF algorithm will be used.
  Using in-core AOs.

  ==> MemDFJK: Density-Fitted J/K Matrices <==

    J tasked:                   Yes
    K tasked:                   Yes
    wK tasked:                   No
    OpenMP threads:               8
    Memory [MiB]:              1598
    Algorithm:                 Core
    Schwarz Cutoff:           1E-12
    Mask sparsity (%):       2.6400
    Fitting Condition:        1E-10

   => Auxiliary Basis Set <=

  Basis Set: (DEF2-SVP AUX)
    Blend: DEF2-UNIVERSAL-JKFIT
    Number of shells: 161
    Number of basis functions: 483
    Number of Cartesian functions: 565
    Spherical Harmonics?: true
    Max angular momentum: 4

  Cached 100.0% of DFT collocation blocks in 0.534 [GiB].

  Minimum eigenvalue in the overlap matrix is 1.3001932838E-03.
  Reciprocal condition number of the overlap matrix is 2.3252382931E-04.
    Using symmetric orthogonalization.

  ==> Pre-Iterations <==

  SCF Guess: Superposition of Atomic Densities via on-the-fly atomic UHF (no occupation information).

   -------------------------
    Irrep   Nso     Nmo    
   -------------------------
     A'        71      71 
     A"        29      29 
   -------------------------
    Total     100     100
   -------------------------

  ==> Iterations <==

                           Total Energy        Delta E     RMS |[F,P]|

   @DF-RKS iter SAD:  -193.47182445523501   -1.93472e+02   0.00000e+00 
   @DF-RKS iter   1:  -193.49320178133598   -2.13773e-02   1.06294e-02 DIIS/ADIIS
   @DF-RKS iter   2:  -193.38489924648420    1.08303e-01   1.21051e-02 DIIS/ADIIS
   @DF-RKS iter   3:  -193.88692353789773   -5.02024e-01   1.30747e-03 DIIS/ADIIS
   @DF-RKS iter   4:  -193.89071106649126   -3.78753e-03   7.72664e-04 DIIS/ADIIS
   @DF-RKS iter   5:  -193.89252239235211   -1.81133e-03   2.06960e-04 DIIS/ADIIS
   @DF-RKS iter   6:  -193.89263868664753   -1.16294e-04   5.27191e-05 DIIS
   @DF-RKS iter   7:  -193.89264636771557   -7.68107e-06   1.06994e-05 DIIS
   @DF-RKS iter   8:  -193.89264665098355   -2.83268e-07   4.81152e-06 DIIS
   @DF-RKS iter   9:  -193.89264671232812   -6.13446e-08   1.72951e-06 DIIS
   @DF-RKS iter  10:  -193.89264672136690   -9.03879e-09   2.32797e-07 DIIS
  Energy and wave function converged.


  ==> Post-Iterations <==

   Electrons on quadrature grid:
      Ntotal   =   36.0000114057 ; deviation = 1.141e-05 

    Orbital Energies [Eh]
    ---------------------

    Doubly Occupied:                                                      

       1Ap   -10.226649     2Ap   -10.225512     3Ap   -10.205892  
       4Ap   -10.166922     5Ap   -10.154356     6Ap    -0.902850  
       7Ap    -0.743297     8Ap    -0.636381     9Ap    -0.582292  
      10Ap    -0.556268    11Ap    -0.473698    12Ap    -0.412486  
       1App   -0.400784    13Ap    -0.378419     2App   -0.373238  
      14Ap    -0.352810    15Ap    -0.302388     3App   -0.197572  

    Virtual:                                                              

       4App   -0.018594     5App    0.072285    16Ap     0.078622  
      17Ap     0.084633    18Ap     0.102358    19Ap     0.117590  
      20Ap     0.151458     6App    0.153689    21Ap     0.178726  
      22Ap     0.223646    23Ap     0.249777    24Ap     0.280332  
      25Ap     0.314897    26Ap     0.368028    27Ap     0.424018  
      28Ap     0.438496     7App    0.447620     8App    0.477040  
      29Ap     0.477668     9App    0.548857    10App    0.587428  
      30Ap     0.600115    31Ap     0.606955    32Ap     0.634246  
      11App    0.634769    33Ap     0.654973    34Ap     0.662882  
      35Ap     0.687306    36Ap     0.699047    12App    0.713946  
      37Ap     0.727264    38Ap     0.744709    39Ap     0.760550  
      40Ap     0.804263    41Ap     0.879684    42Ap     0.920573  
      43Ap     1.022399    44Ap     1.075223    45Ap     1.091054  
      13App    1.130979    14App    1.172339    15App    1.335819  
      16App    1.349822    46Ap     1.390489    47Ap     1.482451  
      48Ap     1.499108    17App    1.543123    18App    1.559563  
      49Ap     1.672478    19App    1.708293    20App    1.732281  
      50Ap     1.748212    51Ap     1.783270    21App    1.799300  
      52Ap     1.834247    22App    1.862766    53Ap     1.900741  
      54Ap     1.924148    55Ap     1.970962    56Ap     2.004502  
      23App    2.039991    57Ap     2.091045    24App    2.102802  
      58Ap     2.163922    59Ap     2.209021    60Ap     2.252943  
      25App    2.285241    61Ap     2.400946    62Ap     2.418024  
      26App    2.493486    63Ap     2.518400    27App    2.632443  
      64Ap     2.632684    65Ap     2.726717    28App    2.742010  
      66Ap     2.814592    67Ap     2.949265    29App    2.957401  
      68Ap     2.993947    69Ap     3.294695    70Ap     3.337650  
      71Ap     3.500759  

    Final Occupation by Irrep:
             Ap   App 
    DOCC [    15,    3 ]
    NA   [    15,    3 ]
    NB   [    15,    3 ]

  @DF-RKS Final Energy:  -193.89264672136690

   => Energetics <=

    Nuclear Repulsion Energy =            146.0608287660313636
    One-Electron Energy =                -548.2531632823333894
    Two-Electron Energy =                 232.0142368257823193
    DFT Exchange-Correlation Energy =     -23.7016277044956922
    Empirical Dispersion Energy =          -0.0129213263515095
    VV10 Nonlocal Energy =                  0.0000000000000000
    Total Energy =                       -193.8926467213669014

Computation Completed


Properties will be evaluated at   0.000000,   0.000000,   0.000000 [a0]

Properties computed using the SCF density matrix


 Multipole Moments:

 ------------------------------------------------------------------------------------
     Multipole            Electronic (a.u.)      Nuclear  (a.u.)        Total (a.u.)
 ------------------------------------------------------------------------------------

 L = 1.  Multiply by 2.5417464519 to convert [e a0] to [Debye]
 Dipole X            :         -0.5026264           -0.0000038           -0.5026301
 Dipole Y            :          0.4809142            0.0000019            0.4809161
 Dipole Z            :          0.0000000            0.0000000            0.0000000
 Magnitude           :                                                    0.6956417

 ------------------------------------------------------------------------------------

*** tstop() called on choehoyun-ui-MacBookAir.local at Mon Aug 10 18:33:01 2026
Module time:
	user time   =       7.40 seconds =       0.12 minutes
	system time =       0.23 seconds =       0.00 minutes
	total time  =          1 seconds =       0.02 minutes
Total time:
	user time   =       7.40 seconds =       0.12 minutes
	system time =       0.23 seconds =       0.00 minutes
	total time  =          1 seconds =       0.02 minutes

    Psi4 stopped on: Monday, 10 August 2026 06:33PM
    Psi4 wall time for execution: 0:00:01.68

*** Psi4 exiting successfully. Buy a developer a beer!
