
    -----------------------------------------------------------------------
          Psi4: An Open-Source Ab Initio Electronic Structure Package
                               Psi4 1.11 release

                         Git: Rev {} zzzzzzz 


    D. G. A. Smith, L. A. Burns, A. C. Simmonett, R. M. Parrish,
    M. C. Schieber, R. Galvelis, P. Kraus, H. Kruse, R. Di Remigio,
    A. Alenaizan, A. M. James, S. Lehtola, J. P. Misiewicz, M. Scheurer,
    R. A. Shaw, J. B. Schriber, Y. Xie, Z. L. Glick, D. A. Sirianni,
    J. S. O'Brien, J. M. Waldrop, A. Kumar, E. G. Hohenstein,
    B. P. Pritchard, B. R. Brooks, H. F. Schaefer III, A. Yu. Sokolov,
    K. Patkowski, A. E. DePrince III, U. Bozkaya, R. A. King,
    F. A. Evangelista, J. M. Turney, T. D. Crawford, C. D. Sherrill,
    J. Chem. Phys. 152(18) 184108 (2020). https://doi.org/10.1063/5.0006002

                            Additional Code Authors
    E. T. Seidl, C. L. Janssen, E. F. Valeev, M. L. Leininger,
    J. F. Gonthier, R. M. Richard, H. R. McAlexander, M. Saitow, X. Wang,
    P. Verma, M. H. Lechner, A. Jiang, S. Behnle, A. G. Heide,
    M. F. Herbst, D. L. Poole, T. Győri, E. C. Mitchell, J. P. Pederson,
    and A. M. Wallace

             Previous Authors, Complete List of Code Contributors,
                       and Citations for Specific Modules
    https://github.com/psi4/psi4/blob/master/codemeta.json
    https://github.com/psi4/psi4/graphs/contributors
    https://psicode.org/psi4manual/master/introduction.html#citing-psifour

    -----------------------------------------------------------------------


    Psi4 started on: Sunday, 09 August 2026 01:25AM

    Process ID: 42143
    Host:       choehoyun-ui-MacBookAir.local
    PSIDATADIR: /Users/hoyoun/micromamba/envs/psi4env/share/psi4
    Memory:     500.0 MiB
    Threads:    1
    Addons:     a̶d̶c̶c̶, a̶m̶b̶i̶t̶, b̶s̶e̶, c̶c̶t̶3̶, c̶f̶o̶u̶r̶, c̶h̶e̶m̶p̶s̶2̶, c̶p̶p̶e̶, d̶d̶x̶, dftd3,
                d̶f̶t̶d̶4̶, dkh, ecpint, einsums, f̶o̶r̶t̶e̶, gauxc, g̶c̶p̶, g̶d̶m̶a̶,
                g̶e̶o̶m̶e̶t̶r̶i̶c̶, g̶p̶u̶_̶d̶f̶c̶c̶, i̶n̶t̶e̶g̶r̶a̶t̶o̶r̶x̶x̶, i̶p̶i̶,
                l̶i̶b̶e̶f̶p̶, m̶d̶i̶, m̶p̶2̶d̶, m̶r̶c̶c̶, ooo, o̶p̶e̶n̶f̶e̶r̶m̶i̶o̶n̶p̶s̶i̶4̶,
                pcmsolver, p̶s̶i̶4̶f̶o̶c̶k̶c̶i̶, p̶s̶i̶x̶a̶s̶, p̶y̶e̶i̶n̶s̶u̶m̶s̶, r̶e̶s̶p̶,
                s̶i̶m̶i̶n̶t̶, s̶n̶s̶m̶p̶2̶, v̶2̶r̶d̶m̶_̶c̶a̶s̶s̶c̶f̶

  ==> Input File <==

--------------------------------------------------------------------------
memory 6 GB
molecule mol {
0 1
C -0.10410469825916 0.05612265604602 -1.21675703778011
N 0.68933110909759 0.15581990698996 0.00000000000000
C -0.10410469825916 0.05612265604602 1.21675703778011
H 0.55343650615541 0.07298819756597 -2.08786345375291
H -0.76965381669986 0.92069824271166 -1.29001708895978
H -0.73054614098901 -0.85098057725896 -1.27216210587287
H 1.41240519048767 -0.55347694511937 0.00000000000000
H -0.76965381669986 0.92069824271166 1.29001708895978
H 0.55343650615541 0.07298819756597 2.08786345375291
H -0.73054614098901 -0.85098057725896 1.27216210587287
units angstrom
no_reorient
no_com
}
set basis def2-TZVP
set scf_type df
set freeze_core true
energy('b3lyp-d3bj')
--------------------------------------------------------------------------

  Memory set to   5.588 GiB by Python driver.

Scratch directory: /tmp/
   => Libint2 <=

    Primary   basis highest AM E, G, H:  7, 6, 3
    Auxiliary basis highest AM E, G, H:  7, 7, 4
    Onebody   basis highest AM E, G, H:  -, -, -
    Solid Harmonics ordering:            Gaussian

*** tstart() called on choehoyun-ui-MacBookAir.local
*** at Sun Aug  9 01:25:05 2026

   => Loading Basis Set <=

    Name: DEF2-TZVP
    Role: ORBITAL
    Keyword: BASIS
    atoms 1, 3 entry C          line   123 file /Users/hoyoun/micromamba/envs/psi4env/share/psi4/basis/def2-tzvp.gbs 
    atoms 2    entry N          line   156 file /Users/hoyoun/micromamba/envs/psi4env/share/psi4/basis/def2-tzvp.gbs 
    atoms 4-10 entry H          line    15 file /Users/hoyoun/micromamba/envs/psi4env/share/psi4/basis/def2-tzvp.gbs 

   => B3LYP-D3(BJ): Empirical Dispersion <=

    Grimme's -D3 (BJ-damping) Dispersion Correction
    Grimme S.; Ehrlich S.; Goerigk L. (2011), J. Comput. Chem., 32: 1456

        s6 =       1.000000
        s8 =       1.988900
        a1 =       0.398100
        a2 =       4.421100


         ---------------------------------------------------------
                                   SCF
               by Justin Turney, Rob Parrish, Andy Simmonett
                          and Daniel G. A. Smith
                              RKS Reference
                        1 Threads,   5722 MiB Core
         ---------------------------------------------------------

  ==> Geometry <==

    Molecular point group: cs
    Full point group: Cs

    Geometry (in Angstrom), charge = 0, multiplicity = 1:

       Center              X                  Y                   Z               Mass       
    ------------   -----------------  -----------------  -----------------  -----------------
         C           -0.104104698259     0.056122656046    -1.216757037780    12.000000000000
         N            0.689331109098     0.155819906990     0.000000000000    14.003074004430
         C           -0.104104698259     0.056122656046     1.216757037780    12.000000000000
         H            0.553436506155     0.072988197566    -2.087863453753     1.007825032230
         H           -0.769653816700     0.920698242712    -1.290017088960     1.007825032230
         H           -0.730546140989    -0.850980577259    -1.272162105873     1.007825032230
         H            1.412405190488    -0.553476945119     0.000000000000     1.007825032230
         H           -0.769653816700     0.920698242712     1.290017088960     1.007825032230
         H            0.553436506155     0.072988197566     2.087863453753     1.007825032230
         H           -0.730546140989    -0.850980577259     1.272162105873     1.007825032230

  Running in cs symmetry.

  Rotational constants: A =      1.07271  B =      0.30757  C =      0.26854 [cm^-1]
  Rotational constants: A =  32158.93184  B =   9220.72401  C =   8050.52093 [MHz]
  Nuclear repulsion =   84.039277657359264

  Charge       = 0
  Multiplicity = 1
  Electrons    = 26
  Nalpha       = 13
  Nbeta        = 13

  ==> Algorithm <==

  SCF Algorithm Type is DF.
  DIIS enabled.
  MOM disabled.
  Fractional occupation disabled.
  Guess Type is SAD.
  Energy threshold   = 1.00e-06
  Density threshold  = 1.00e-06
  Integral threshold = 1.00e-12

  ==> Primary Basis <==

  Basis Set: DEF2-TZVP
    Blend: DEF2-TZVP
    Number of shells: 61
    Number of basis functions: 135
    Number of Cartesian functions: 150
    Spherical Harmonics?: true
    Max angular momentum: 3

  ==> DFT Potential <==

   => LibXC <=

    Version 7.1.2
    S. Lehtola, C. Steigemann, M. J. T. Oliveira, and M. A. L. Marques,  SoftwareX 7, 1–5 (2018) (10.1016/j.softx.2017.11.002)

   => Composite Functional: B3LYP-D3BJ2B <= 

    B3LYP-d3bj2b Hyb-GGA Exchange-Correlation Functional

    P. J. Stephens, F. J. Devlin, C. F. Chabalowski, and M. J. Frisch,  J. Phys. Chem. 98, 11623 (1994) (10.1021/j100096a001)

    Deriv               =              1
    GGA                 =           TRUE
    Meta                =          FALSE

    Exchange Hybrid     =           TRUE
    MP2 Hybrid          =          FALSE

   => Exchange Functionals <=

    0.0800   Slater exchange
    0.7200         Becke 88

   => Exact (HF) Exchange <=

    0.2000               HF 

   => Correlation Functionals <=

    0.1900   Vosko, Wilk & Nusair (VWN5_RPA)
    0.8100   Lee, Yang & Parr

   => LibXC Density Thresholds  <==

    XC_HYB_GGA_XC_B3LYP:  1.00E-15 

   => Molecular Quadrature <=

    Radial Scheme          =       TREUTLER
    Pruning Scheme         =           NONE
    Nuclear Scheme         =       TREUTLER

    Blocking Scheme        =         OCTREE
    BS radius alpha        =              1
    Pruning alpha          =              1
    Radial Points          =             75
    Spherical Points       =            302
    Total Points           =         215526
    Total Blocks           =           1658
    Max Points             =            256
    Max Functions          =            134
    Weights Tolerance      =       1.00E-15

   => Loading Basis Set <=

    Name: (DEF2-TZVP AUX)
    Role: JKFIT
    Keyword: DF_BASIS_SCF
    atoms 1, 3 entry C          line   198 file /Users/hoyoun/micromamba/envs/psi4env/share/psi4/basis/def2-universal-jkfit.gbs 
    atoms 2    entry N          line   258 file /Users/hoyoun/micromamba/envs/psi4env/share/psi4/basis/def2-universal-jkfit.gbs 
    atoms 4-10 entry H          line    18 file /Users/hoyoun/micromamba/envs/psi4env/share/psi4/basis/def2-universal-jkfit.gbs 

  ==> Integral Setup <==

  DFHelper Memory: AOs need 0.053 GiB; user supplied 3.444 GiB. 
  SCF_SUBTYPE=INCORE selected. In-core MEM_DF algorithm will be used.
  Using in-core AOs.

  ==> MemDFJK: Density-Fitted J/K Matrices <==

    J tasked:                   Yes
    K tasked:                   Yes
    wK tasked:                   No
    OpenMP threads:               1
    Memory [MiB]:              3527
    Algorithm:                 Core
    Schwarz Cutoff:           1E-12
    Mask sparsity (%):       0.3182
    Fitting Condition:        1E-10

   => Auxiliary Basis Set <=

  Basis Set: (DEF2-TZVP AUX)
    Blend: DEF2-UNIVERSAL-JKFIT
    Number of shells: 117
    Number of basis functions: 353
    Number of Cartesian functions: 411
    Spherical Harmonics?: true
    Max angular momentum: 4

  Cached 100.0% of DFT collocation blocks in 0.747 [GiB].

  Minimum eigenvalue in the overlap matrix is 8.8524965815E-04.
  Reciprocal condition number of the overlap matrix is 1.1836230872E-04.
    Using symmetric orthogonalization.

  ==> Pre-Iterations <==

  SCF Guess: Superposition of Atomic Densities via on-the-fly atomic UHF (no occupation information).

   -------------------------
    Irrep   Nso     Nmo    
   -------------------------
     A'        75      75 
     A"        60      60 
   -------------------------
    Total     135     135
   -------------------------

  ==> Iterations <==

                           Total Energy        Delta E     RMS |[F,P]|

   @DF-RKS iter SAD:  -134.64816437474019   -1.34648e+02   0.00000e+00 
   @DF-RKS iter   1:  -134.79591759826431   -1.47753e-01   9.81188e-03 ADIIS/DIIS
   @DF-RKS iter   2:  -134.31839623944217    4.77521e-01   1.37795e-02 ADIIS/DIIS
   @DF-RKS iter   3:  -135.21788234230235   -8.99486e-01   1.79796e-03 ADIIS/DIIS
   @DF-RKS iter   4:  -135.22709780671616   -9.21546e-03   9.13755e-04 ADIIS/DIIS
   @DF-RKS iter   5:  -135.23016736728141   -3.06956e-03   1.06306e-04 ADIIS/DIIS
   @DF-RKS iter   6:  -135.23021328679374   -4.59195e-05   1.72700e-05 DIIS
   @DF-RKS iter   7:  -135.23021474725374   -1.46046e-06   3.28017e-06 DIIS
   @DF-RKS iter   8:  -135.23021480595509   -5.87013e-08   3.11397e-07 DIIS
  Energy and wave function converged.


  ==> Post-Iterations <==

   Electrons on quadrature grid:
      Ntotal   =   25.9999535765 ; deviation = -4.642e-05 

    Orbital Energies [Eh]
    ---------------------

    Doubly Occupied:                                                      

       1Ap   -14.298763     1App  -10.185165     2Ap   -10.185155  
       3Ap    -0.898376     2App   -0.701234     4Ap    -0.628738  
       5Ap    -0.490402     6Ap    -0.443190     3App   -0.437640  
       4App   -0.388665     7Ap    -0.367613     5App   -0.365160  
       8Ap    -0.225547  

    Virtual:                                                              

       9Ap     0.031929    10Ap     0.068563     6App    0.078428  
      11Ap     0.098870    12Ap     0.109777     7App    0.129386  
      13Ap     0.139551     8App    0.145831     9App    0.183185  
      14Ap     0.217388    10App    0.220770    15Ap     0.237025  
      11App    0.293110    16Ap     0.321180    12App    0.323860  
      17Ap     0.365122    18Ap     0.379823    13App    0.437593  
      19Ap     0.437682    20Ap     0.466395    14App    0.468588  
      21Ap     0.471313    15App    0.475012    22Ap     0.515931  
      16App    0.520705    23Ap     0.534119    17App    0.599156  
      24Ap     0.602964    25Ap     0.704214    18App    0.719759  
      26Ap     0.813555    19App    0.882126    27Ap     0.893086  
      20App    0.949492    21App    1.000876    28Ap     1.004758  
      29Ap     1.035544    22App    1.080756    30Ap     1.283797  
      23App    1.326235    31Ap     1.350518    32Ap     1.414006  
      33Ap     1.435475    24App    1.455443    34Ap     1.500813  
      25App    1.515326    26App    1.535930    35Ap     1.547987  
      36Ap     1.563578    27App    1.567601    28App    1.578543  
      37Ap     1.725688    29App    1.732225    38Ap     1.823117  
      39Ap     1.850361    40Ap     1.927392    30App    1.944769  
      41Ap     1.965619    31App    2.000344    32App    2.046566  
      42Ap     2.049692    33App    2.085523    43Ap     2.146189  
      34App    2.209685    44Ap     2.250272    35App    2.302975  
      45Ap     2.323493    46Ap     2.368125    36App    2.414637  
      37App    2.436194    47Ap     2.487628    38App    2.498827  
      48Ap     2.533020    39App    2.589183    49Ap     2.589573  
      50Ap     2.675164    40App    2.697722    51Ap     2.722144  
      41App    2.801435    52Ap     2.854457    53Ap     2.983123  
      54Ap     3.015160    42App    3.050713    55Ap     3.067257  
      56Ap     3.104897    43App    3.119565    44App    3.125909  
      45App    3.250217    57Ap     3.288667    58Ap     3.318243  
      46App    3.358220    59Ap     3.373136    47App    3.428856  
      48App    3.521335    49App    3.566914    60Ap     3.569784  
      61Ap     3.604667    62Ap     3.670056    50App    3.709711  
      63Ap     3.973301    51App    4.025038    64Ap     4.131087  
      52App    4.136172    53App    4.170537    65Ap     4.226250  
      66Ap     4.341482    54App    4.362282    67Ap     4.560284  
      68Ap     4.764704    55App    4.824007    69Ap     4.942543  
      70Ap     5.035461    56App    5.053093    57App    5.171371  
      71Ap     5.229322    58App    5.286564    72Ap     5.458012  
      59App    5.467559    73Ap     5.782009    74Ap    22.298826  
      60App   22.353981    75Ap    32.127922  

    Final Occupation by Irrep:
             Ap   App 
    DOCC [     8,    5 ]
    NA   [     8,    5 ]
    NB   [     8,    5 ]

  @DF-RKS Final Energy:  -135.23021480595509

   => Energetics <=

    Nuclear Repulsion Energy =             84.0392776573592641
    One-Electron Energy =                -347.4141627536529313
    Two-Electron Energy =                 144.6725842895794187
    DFT Exchange-Correlation Energy =     -16.5193747216816575
    Empirical Dispersion Energy =          -0.0085392775591755
    VV10 Nonlocal Energy =                  0.0000000000000000
    Total Energy =                       -135.2302148059550859

Computation Completed


Properties will be evaluated at   0.000000,   0.000000,   0.000000 [a0]

Properties computed using the SCF density matrix


 Multipole Moments:

 ------------------------------------------------------------------------------------
     Multipole            Electronic (a.u.)      Nuclear  (a.u.)        Total (a.u.)
 ------------------------------------------------------------------------------------

 L = 1.  Multiply by 2.5417464519 to convert [e a0] to [Debye]
 Dipole X            :         -5.9192337            5.8485884           -0.0706453
 Dipole Y            :         -3.1941146            2.8273062           -0.3668084
 Dipole Z            :          0.0000000            0.0000000            0.0000000
 Magnitude           :                                                    0.3735494

 ------------------------------------------------------------------------------------

*** tstop() called on choehoyun-ui-MacBookAir.local at Sun Aug  9 01:25:20 2026
Module time:
	user time   =      12.75 seconds =       0.21 minutes
	system time =       0.66 seconds =       0.01 minutes
	total time  =         15 seconds =       0.25 minutes
Total time:
	user time   =      12.75 seconds =       0.21 minutes
	system time =       0.66 seconds =       0.01 minutes
	total time  =         15 seconds =       0.25 minutes

    Psi4 stopped on: Sunday, 09 August 2026 01:25AM
    Psi4 wall time for execution: 0:00:14.53

*** Psi4 exiting successfully. Buy a developer a beer!
