
    -----------------------------------------------------------------------
          Psi4: An Open-Source Ab Initio Electronic Structure Package
                               Psi4 1.11 release

                         Git: Rev {} zzzzzzz 


    D. G. A. Smith, L. A. Burns, A. C. Simmonett, R. M. Parrish,
    M. C. Schieber, R. Galvelis, P. Kraus, H. Kruse, R. Di Remigio,
    A. Alenaizan, A. M. James, S. Lehtola, J. P. Misiewicz, M. Scheurer,
    R. A. Shaw, J. B. Schriber, Y. Xie, Z. L. Glick, D. A. Sirianni,
    J. S. O'Brien, J. M. Waldrop, A. Kumar, E. G. Hohenstein,
    B. P. Pritchard, B. R. Brooks, H. F. Schaefer III, A. Yu. Sokolov,
    K. Patkowski, A. E. DePrince III, U. Bozkaya, R. A. King,
    F. A. Evangelista, J. M. Turney, T. D. Crawford, C. D. Sherrill,
    J. Chem. Phys. 152(18) 184108 (2020). https://doi.org/10.1063/5.0006002

                            Additional Code Authors
    E. T. Seidl, C. L. Janssen, E. F. Valeev, M. L. Leininger,
    J. F. Gonthier, R. M. Richard, H. R. McAlexander, M. Saitow, X. Wang,
    P. Verma, M. H. Lechner, A. Jiang, S. Behnle, A. G. Heide,
    M. F. Herbst, D. L. Poole, T. Győri, E. C. Mitchell, J. P. Pederson,
    and A. M. Wallace

             Previous Authors, Complete List of Code Contributors,
                       and Citations for Specific Modules
    https://github.com/psi4/psi4/blob/master/codemeta.json
    https://github.com/psi4/psi4/graphs/contributors
    https://psicode.org/psi4manual/master/introduction.html#citing-psifour

    -----------------------------------------------------------------------


    Psi4 started on: Sunday, 09 August 2026 04:09AM

    Process ID: 53040
    Host:       choehoyun-ui-MacBookAir.local
    PSIDATADIR: /Users/hoyoun/micromamba/envs/psi4env/share/psi4
    Memory:     500.0 MiB
    Threads:    8
    Addons:     a̶d̶c̶c̶, a̶m̶b̶i̶t̶, b̶s̶e̶, c̶c̶t̶3̶, c̶f̶o̶u̶r̶, c̶h̶e̶m̶p̶s̶2̶, c̶p̶p̶e̶, d̶d̶x̶, dftd3,
                d̶f̶t̶d̶4̶, dkh, ecpint, einsums, f̶o̶r̶t̶e̶, gauxc, g̶c̶p̶, g̶d̶m̶a̶,
                g̶e̶o̶m̶e̶t̶r̶i̶c̶, g̶p̶u̶_̶d̶f̶c̶c̶, i̶n̶t̶e̶g̶r̶a̶t̶o̶r̶x̶x̶, i̶p̶i̶,
                l̶i̶b̶e̶f̶p̶, m̶d̶i̶, m̶p̶2̶d̶, m̶r̶c̶c̶, ooo, o̶p̶e̶n̶f̶e̶r̶m̶i̶o̶n̶p̶s̶i̶4̶,
                pcmsolver, p̶s̶i̶4̶f̶o̶c̶k̶c̶i̶, p̶s̶i̶x̶a̶s̶, p̶y̶e̶i̶n̶s̶u̶m̶s̶, r̶e̶s̶p̶,
                s̶i̶m̶i̶n̶t̶, s̶n̶s̶m̶p̶2̶, v̶2̶r̶d̶m̶_̶c̶a̶s̶s̶c̶f̶

  ==> Input File <==

--------------------------------------------------------------------------
memory 3 GB
molecule mol {
0 1
C 4.23498342462273 -0.88148490434791 2.26035224398666
C 4.20665692280439 -0.21490174204494 3.49305665894228
C 3.13772677459744 0.63766353229112 3.79031726236573
C 2.11526480792516 0.82649931687697 2.85979353469302
C 2.14362262080262 0.18786549669760 1.59976067327960
C 3.21968287969559 -0.68657635767743 1.32630323334222
C 1.02866038480787 0.41256187154794 0.68247354280196
C 0.98117344658289 0.30590221069502 -0.68032884902764
C -0.28273291809709 0.40751880396766 -1.40560004150788
C -1.52097058018201 0.01171216663137 -0.99006534030513
C -1.82702966485794 -0.75421860704122 0.19188516677917
C -3.05737704415500 -0.99241383646368 0.72402533562215
C -6.77979786814059 -0.62285518726082 0.28704872253075
C -5.52571265999246 -1.12987743998695 0.62508175409407
C -4.34390230311283 -0.40166946697022 0.35844729550640
C -4.47735883201003 0.88121878450593 -0.21903943631980
C -5.73356391129253 1.38956773483156 -0.55203572387311
C -6.89013782320145 0.63884694311345 -0.31032248166069
C 4.42966384748718 0.87327582000273 -2.17667727011649
C 3.30519814716073 1.00159080814546 -1.36119082662044
C 2.19371163123146 0.15691206295069 -1.53304611084236
C 2.22985605484486 -0.80375902425956 -2.55856904405376
C 3.35959300276291 -0.93892246818242 -3.37137753133864
C 4.46393518916532 -0.10211575132913 -3.18162196269446
H 5.05146539330710 -1.56371127393796 2.03027989040272
H 5.00314730018110 -0.36975450545516 4.21830399575503
H 3.09771224329313 1.14992260312371 4.74992817435946
H 1.27921964722175 1.48324430519553 3.09741278134661
H 3.24847734878693 -1.21812812580889 0.38053822831159
H 0.10395697510354 0.71907987958687 1.17085571095411
H -0.20795687881408 0.82090812144410 -2.41222273931967
H -2.35461142254217 0.22513908618808 -1.65876471232682
H -0.97966050744661 -1.24864248886953 0.66839395781342
H -3.10858765376215 -1.73436946740090 1.52259739196452
H -7.67369302727073 -1.20880463235171 0.49332895470698
H -5.44433382740330 -2.11093641759472 1.09142816095733
H -3.59278038123483 1.49311349293965 -0.36944846496293
H -5.81213005782706 2.38351023356218 -0.98915562286012
H -7.86816634917245 1.03956036516902 -0.56935498676304
H 5.28030537847324 1.53682169138709 -2.03187753243419
H 3.27859698950178 1.75399456489741 -0.57693948786486
H 1.36935207293581 -1.45414547916867 -2.70459824627928
H 3.37617544549266 -1.69618890895171 -4.15315962243910
H 5.34236578172723 -0.20295381064761 -3.81621663690526
units angstrom
no_reorient
no_com
}
set basis def2-TZVP
set scf_type disk_df
set freeze_core true
set e_convergence 8
energy('b3lyp-d3bj')
--------------------------------------------------------------------------

  Memory set to   2.794 GiB by Python driver.

Scratch directory: /Users/hoyoun/Documents/Yonsei_AX_Camp/(진짜_이게_최종)/calibration/dft_work/_scratch/i17p/
   => Libint2 <=

    Primary   basis highest AM E, G, H:  7, 6, 3
    Auxiliary basis highest AM E, G, H:  7, 7, 4
    Onebody   basis highest AM E, G, H:  -, -, -
    Solid Harmonics ordering:            Gaussian

*** tstart() called on choehoyun-ui-MacBookAir.local
*** at Sun Aug  9 04:09:53 2026

   => Loading Basis Set <=

    Name: DEF2-TZVP
    Role: ORBITAL
    Keyword: BASIS
    atoms 1-24  entry C          line   123 file /Users/hoyoun/micromamba/envs/psi4env/share/psi4/basis/def2-tzvp.gbs 
    atoms 25-44 entry H          line    15 file /Users/hoyoun/micromamba/envs/psi4env/share/psi4/basis/def2-tzvp.gbs 

   => B3LYP-D3(BJ): Empirical Dispersion <=

    Grimme's -D3 (BJ-damping) Dispersion Correction
    Grimme S.; Ehrlich S.; Goerigk L. (2011), J. Comput. Chem., 32: 1456

        s6 =       1.000000
        s8 =       1.988900
        a1 =       0.398100
        a2 =       4.421100


         ---------------------------------------------------------
                                   SCF
               by Justin Turney, Rob Parrish, Andy Simmonett
                          and Daniel G. A. Smith
                              RKS Reference
                        8 Threads,   2861 MiB Core
         ---------------------------------------------------------

  ==> Geometry <==

    Molecular point group: c1
    Full point group: C1

    Geometry (in Angstrom), charge = 0, multiplicity = 1:

       Center              X                  Y                   Z               Mass       
    ------------   -----------------  -----------------  -----------------  -----------------
         C            4.234983424623    -0.881484904348     2.260352243987    12.000000000000
         C            4.206656922804    -0.214901742045     3.493056658942    12.000000000000
         C            3.137726774597     0.637663532291     3.790317262366    12.000000000000
         C            2.115264807925     0.826499316877     2.859793534693    12.000000000000
         C            2.143622620803     0.187865496698     1.599760673280    12.000000000000
         C            3.219682879696    -0.686576357677     1.326303233342    12.000000000000
         C            1.028660384808     0.412561871548     0.682473542802    12.000000000000
         C            0.981173446583     0.305902210695    -0.680328849028    12.000000000000
         C           -0.282732918097     0.407518803968    -1.405600041508    12.000000000000
         C           -1.520970580182     0.011712166631    -0.990065340305    12.000000000000
         C           -1.827029664858    -0.754218607041     0.191885166779    12.000000000000
         C           -3.057377044155    -0.992413836464     0.724025335622    12.000000000000
         C           -6.779797868141    -0.622855187261     0.287048722531    12.000000000000
         C           -5.525712659992    -1.129877439987     0.625081754094    12.000000000000
         C           -4.343902303113    -0.401669466970     0.358447295506    12.000000000000
         C           -4.477358832010     0.881218784506    -0.219039436320    12.000000000000
         C           -5.733563911293     1.389567734832    -0.552035723873    12.000000000000
         C           -6.890137823201     0.638846943113    -0.310322481661    12.000000000000
         C            4.429663847487     0.873275820003    -2.176677270116    12.000000000000
         C            3.305198147161     1.001590808145    -1.361190826620    12.000000000000
         C            2.193711631231     0.156912062951    -1.533046110842    12.000000000000
         C            2.229856054845    -0.803759024260    -2.558569044054    12.000000000000
         C            3.359593002763    -0.938922468182    -3.371377531339    12.000000000000
         C            4.463935189165    -0.102115751329    -3.181621962694    12.000000000000
         H            5.051465393307    -1.563711273938     2.030279890403     1.007825032230
         H            5.003147300181    -0.369754505455     4.218303995755     1.007825032230
         H            3.097712243293     1.149922603124     4.749928174359     1.007825032230
         H            1.279219647222     1.483244305196     3.097412781347     1.007825032230
         H            3.248477348787    -1.218128125809     0.380538228312     1.007825032230
         H            0.103956975104     0.719079879587     1.170855710954     1.007825032230
         H           -0.207956878814     0.820908121444    -2.412222739320     1.007825032230
         H           -2.354611422542     0.225139086188    -1.658764712327     1.007825032230
         H           -0.979660507447    -1.248642488870     0.668393957813     1.007825032230
         H           -3.108587653762    -1.734369467401     1.522597391965     1.007825032230
         H           -7.673693027271    -1.208804632352     0.493328954707     1.007825032230
         H           -5.444333827403    -2.110936417595     1.091428160957     1.007825032230
         H           -3.592780381235     1.493113492940    -0.369448464963     1.007825032230
         H           -5.812130057827     2.383510233562    -0.989155622860     1.007825032230
         H           -7.868166349172     1.039560365169    -0.569354986763     1.007825032230
         H            5.280305378473     1.536821691387    -2.031877532434     1.007825032230
         H            3.278596989502     1.753994564897    -0.576939487865     1.007825032230
         H            1.369352072936    -1.454145479169    -2.704598246279     1.007825032230
         H            3.376175445493    -1.696188908952    -4.153159622439     1.007825032230
         H            5.342365781727    -0.202953810648    -3.816216636905     1.007825032230

  Running in c1 symmetry.

  Rotational constants: A =      0.01253  B =      0.00355  C =      0.00295 [cm^-1]
  Rotational constants: A =    375.69439  B =    106.35121  C =     88.43258 [MHz]
  Nuclear repulsion = 1719.210350475913174

  Charge       = 0
  Multiplicity = 1
  Electrons    = 164
  Nalpha       = 82
  Nbeta        = 82

  ==> Algorithm <==

  SCF Algorithm Type is DISK_DF.
  DIIS enabled.
  MOM disabled.
  Fractional occupation disabled.
  Guess Type is SAD.
  Energy threshold   = 1.00e-08
  Density threshold  = 1.00e-06
  Integral threshold = 1.00e-12

  ==> Primary Basis <==

  Basis Set: DEF2-TZVP
    Blend: DEF2-TZVP
    Number of shells: 344
    Number of basis functions: 864
    Number of Cartesian functions: 984
    Spherical Harmonics?: true
    Max angular momentum: 3

  ==> DFT Potential <==

   => LibXC <=

    Version 7.1.2
    S. Lehtola, C. Steigemann, M. J. T. Oliveira, and M. A. L. Marques,  SoftwareX 7, 1–5 (2018) (10.1016/j.softx.2017.11.002)

   => Composite Functional: B3LYP-D3BJ2B <= 

    B3LYP-d3bj2b Hyb-GGA Exchange-Correlation Functional

    P. J. Stephens, F. J. Devlin, C. F. Chabalowski, and M. J. Frisch,  J. Phys. Chem. 98, 11623 (1994) (10.1021/j100096a001)

    Deriv               =              1
    GGA                 =           TRUE
    Meta                =          FALSE

    Exchange Hybrid     =           TRUE
    MP2 Hybrid          =          FALSE

   => Exchange Functionals <=

    0.0800   Slater exchange
    0.7200         Becke 88

   => Exact (HF) Exchange <=

    0.2000               HF 

   => Correlation Functionals <=

    0.1900   Vosko, Wilk & Nusair (VWN5_RPA)
    0.8100   Lee, Yang & Parr

   => LibXC Density Thresholds  <==

    XC_HYB_GGA_XC_B3LYP:  1.00E-15 

   => Molecular Quadrature <=

    Radial Scheme          =       TREUTLER
    Pruning Scheme         =           NONE
    Nuclear Scheme         =       TREUTLER

    Blocking Scheme        =         OCTREE
    BS radius alpha        =              1
    Pruning alpha          =              1
    Radial Points          =             75
    Spherical Points       =            302
    Total Points           =         908308
    Total Blocks           =           6348
    Max Points             =            256
    Max Functions          =            539
    Weights Tolerance      =       1.00E-15

   => Loading Basis Set <=

    Name: (DEF2-TZVP AUX)
    Role: JKFIT
    Keyword: DF_BASIS_SCF
    atoms 1-24  entry C          line   198 file /Users/hoyoun/micromamba/envs/psi4env/share/psi4/basis/def2-universal-jkfit.gbs 
    atoms 25-44 entry H          line    18 file /Users/hoyoun/micromamba/envs/psi4env/share/psi4/basis/def2-universal-jkfit.gbs 

  ==> Integral Setup <==

  ==> DiskDFJK: Density-Fitted J/K Matrices <==

    J tasked:                  Yes
    K tasked:                  Yes
    wK tasked:                  No
    OpenMP threads:              8
    Integrals threads:           8
    Memory [MiB]:             1931
    Algorithm:                Disk
    Integral Cache:           NONE
    Schwarz Cutoff:          1E-12
    Fitting Condition:       1E-10

   => Auxiliary Basis Set <=

  Basis Set: (DEF2-TZVP AUX)
    Blend: DEF2-UNIVERSAL-JKFIT
    Number of shells: 720
    Number of basis functions: 2160
    Number of Cartesian functions: 2536
    Spherical Harmonics?: true
    Max angular momentum: 4

  Cached 2.3% of DFT collocation blocks in 0.201 [GiB].

  Minimum eigenvalue in the overlap matrix is 7.3978122882E-06.
  Reciprocal condition number of the overlap matrix is 6.9277005054E-07.
    Using symmetric orthogonalization.

  ==> Pre-Iterations <==

  SCF Guess: Superposition of Atomic Densities via on-the-fly atomic UHF (no occupation information).

   -------------------------
    Irrep   Nso     Nmo    
   -------------------------
     A        864     864 
   -------------------------
    Total     864     864
   -------------------------

  ==> Iterations <==

                           Total Energy        Delta E     RMS |[F,P]|

   @DF-RKS iter SAD:  -925.69370172510548   -9.25694e+02   0.00000e+00 
   @DF-RKS iter   1:  -925.23398365271476    4.59718e-01   2.07773e-03 ADIIS/DIIS
   @DF-RKS iter   2:  -924.49693516028753    7.37048e-01   2.45909e-03 ADIIS/DIIS
   @DF-RKS iter   3:  -926.95945350244472   -2.46252e+00   3.04791e-04 ADIIS/DIIS
   @DF-RKS iter   4:  -926.97960303808759   -2.01495e-02   1.99030e-04 ADIIS/DIIS
   @DF-RKS iter   5:  -926.99317060877138   -1.35676e-02   7.36338e-05 DIIS
   @DF-RKS iter   6:  -926.99508231379536   -1.91171e-03   2.48631e-05 DIIS
   @DF-RKS iter   7:  -926.99533766448678   -2.55351e-04   6.51684e-06 DIIS
   @DF-RKS iter   8:  -926.99535245832215   -1.47938e-05   2.86400e-06 DIIS
   @DF-RKS iter   9:  -926.99535559187689   -3.13355e-06   8.78548e-07 DIIS
   @DF-RKS iter  10:  -926.99535588590606   -2.94029e-07   2.31848e-07 DIIS
   @DF-RKS iter  11:  -926.99535590433345   -1.84274e-08   1.04803e-07 DIIS
   @DF-RKS iter  12:  -926.99535590858397   -4.25052e-09   2.52310e-08 DIIS
  Energy and wave function converged.


  ==> Post-Iterations <==

   Electrons on quadrature grid:
      Ntotal   =  164.0000619563 ; deviation = 6.196e-05 

    Orbital Energies [Eh]
    ---------------------

    Doubly Occupied:                                                      

       1A    -10.193444     2A    -10.191243     3A    -10.191046  
       4A    -10.189693     5A    -10.183495     6A    -10.182431  
       7A    -10.181766     8A    -10.181705     9A    -10.181697  
      10A    -10.181181    11A    -10.181018    12A    -10.180805  
      13A    -10.180586    14A    -10.180440    15A    -10.180401  
      16A    -10.180328    17A    -10.180307    18A    -10.180115  
      19A    -10.179884    20A    -10.179808    21A    -10.179667  
      22A    -10.179183    23A    -10.179026    24A    -10.177697  
      25A     -0.870290    26A     -0.861875    27A     -0.857441  
      28A     -0.828258    29A     -0.801794    30A     -0.771118  
      31A     -0.759460    32A     -0.750131    33A     -0.749095  
      34A     -0.747425    35A     -0.728673    36A     -0.705096  
      37A     -0.653397    38A     -0.625672    39A     -0.612569  
      40A     -0.608760    41A     -0.605748    42A     -0.600256  
      43A     -0.586598    44A     -0.558040    45A     -0.540383  
      46A     -0.527034    47A     -0.507500    48A     -0.498648  
      49A     -0.486500    50A     -0.477357    51A     -0.467454  
      52A     -0.463489    53A     -0.456687    54A     -0.451494  
      55A     -0.443825    56A     -0.436714    57A     -0.427843  
      58A     -0.425562    59A     -0.424688    60A     -0.424075  
      61A     -0.409950    62A     -0.400562    63A     -0.390326  
      64A     -0.380452    65A     -0.376589    66A     -0.373390  
      67A     -0.366793    68A     -0.357211    69A     -0.350749  
      70A     -0.348212    71A     -0.345620    72A     -0.342126  
      73A     -0.338801    74A     -0.325653    75A     -0.305795  
      76A     -0.276982    77A     -0.267278    78A     -0.261863  
      79A     -0.260133    80A     -0.255824    81A     -0.236468  
      82A     -0.199949  

    Virtual:                                                              

      83A     -0.077165    84A     -0.044065    85A     -0.024534  
      86A     -0.017607    87A     -0.013280    88A     -0.008569  
      89A      0.005240    90A      0.039290    91A      0.045128  
      92A      0.047947    93A      0.050431    94A      0.052764  
      95A      0.063467    96A      0.067056    97A      0.072986  
      98A      0.076028    99A      0.083828   100A      0.086232  
     101A      0.092082   102A      0.093292   103A      0.097718  
     104A      0.105496   105A      0.108094   106A      0.111355  
     107A      0.115168   108A      0.118018   109A      0.121118  
     110A      0.128885   111A      0.131766   112A      0.138993  
     113A      0.146423   114A      0.148358   115A      0.154045  
     116A      0.166059   117A      0.175259   118A      0.176108  
     119A      0.182187   120A      0.191391   121A      0.192566  
     122A      0.193303   123A      0.198319   124A      0.201316  
     125A      0.208731   126A      0.209371   127A      0.213611  
     128A      0.215157   129A      0.224153   130A      0.224629  
     131A      0.226755   132A      0.231969   133A      0.233383  
     134A      0.236222   135A      0.237893   136A      0.242257  
     137A      0.246057   138A      0.250175   139A      0.250721  
     140A      0.251970   141A      0.258527   142A      0.262950  
     143A      0.264440   144A      0.268671   145A      0.272334  
     146A      0.275672   147A      0.278992   148A      0.286087  
     149A      0.288579   150A      0.295616   151A      0.297099  
     152A      0.300733   153A      0.303836   154A      0.311506  
     155A      0.313939   156A      0.317872   157A      0.322797  
     158A      0.328910   159A      0.333319   160A      0.339234  
     161A      0.339840   162A      0.342361   163A      0.344350  
     164A      0.348205   165A      0.353366   166A      0.355254  
     167A      0.361738   168A      0.363962   169A      0.371715  
     170A      0.374024   171A      0.374680   172A      0.378336  
     173A      0.382548   174A      0.387465   175A      0.390865  
     176A      0.391666   177A      0.395556   178A      0.402664  
     179A      0.403756   180A      0.405034   181A      0.406379  
     182A      0.409444   183A      0.412311   184A      0.415967  
     185A      0.420794   186A      0.422466   187A      0.424791  
     188A      0.428133   189A      0.433835   190A      0.435381  
     191A      0.442914   192A      0.444784   193A      0.448114  
     194A      0.452808   195A      0.457365   196A      0.460371  
     197A      0.464957   198A      0.467943   199A      0.473432  
     200A      0.478995   201A      0.482089   202A      0.485957  
     203A      0.486962   204A      0.488449   205A      0.493645  
     206A      0.495696   207A      0.498490   208A      0.502251  
     209A      0.507080   210A      0.509620   211A      0.517051  
     212A      0.520907   213A      0.526527   214A      0.533600  
     215A      0.540182   216A      0.544377   217A      0.546693  
     218A      0.554309   219A      0.558956   220A      0.570385  
     221A      0.577661   222A      0.582130   223A      0.588045  
     224A      0.597408   225A      0.603718   226A      0.611943  
     227A      0.613191   228A      0.623737   229A      0.630178  
     230A      0.635355   231A      0.642696   232A      0.643828  
     233A      0.653585   234A      0.657047   235A      0.666621  
     236A      0.667732   237A      0.674943   238A      0.676883  
     239A      0.680600   240A      0.682614   241A      0.686075  
     242A      0.694404   243A      0.699968   244A      0.701182  
     245A      0.701494   246A      0.710886   247A      0.713444  
     248A      0.724492   249A      0.727798   250A      0.733008  
     251A      0.736880   252A      0.740506   253A      0.743114  
     254A      0.751190   255A      0.758870   256A      0.760469  
     257A      0.773177   258A      0.777482   259A      0.780626  
     260A      0.786386   261A      0.789433   262A      0.794841  
     263A      0.799669   264A      0.807604   265A      0.818236  
     266A      0.820092   267A      0.825778   268A      0.835006  
     269A      0.841342   270A      0.847592   271A      0.851169  
     272A      0.857334   273A      0.867437   274A      0.871854  
     275A      0.873419   276A      0.882157   277A      0.885360  
     278A      0.893249   279A      0.896938   280A      0.900580  
     281A      0.906008   282A      0.908609   283A      0.914634  
     284A      0.920880   285A      0.929416   286A      0.937780  
     287A      0.958007   288A      0.961908   289A      0.964612  
     290A      0.971081   291A      0.983316   292A      0.986881  
     293A      0.992987   294A      1.006529   295A      1.010433  
     296A      1.012176   297A      1.017342   298A      1.022269  
     299A      1.030421   300A      1.036778   301A      1.046918  
     302A      1.049078   303A      1.062397   304A      1.067793  
     305A      1.077211   306A      1.082040   307A      1.086045  
     308A      1.094878   309A      1.104711   310A      1.108302  
     311A      1.116814   312A      1.122843   313A      1.127143  
     314A      1.137893   315A      1.148862   316A      1.159140  
     317A      1.165917   318A      1.169105   319A      1.173542  
     320A      1.179080   321A      1.192493   322A      1.199275  
     323A      1.201091   324A      1.212313   325A      1.214946  
     326A      1.216124   327A      1.218161   328A      1.228479  
     329A      1.231573   330A      1.239046   331A      1.241407  
     332A      1.244265   333A      1.249026   334A      1.253407  
     335A      1.255675   336A      1.265440   337A      1.268042  
     338A      1.270821   339A      1.280601   340A      1.283043  
     341A      1.293082   342A      1.297548   343A      1.298266  
     344A      1.311277   345A      1.315377   346A      1.316197  
     347A      1.321554   348A      1.335683   349A      1.347891  
     350A      1.360798   351A      1.370883   352A      1.381027  
     353A      1.386760   354A      1.399319   355A      1.401989  
     356A      1.413777   357A      1.417902   358A      1.427974  
     359A      1.432389   360A      1.436130   361A      1.446328  
     362A      1.452116   363A      1.455839   364A      1.458131  
     365A      1.465469   366A      1.469216   367A      1.472142  
     368A      1.481189   369A      1.489108   370A      1.495126  
     371A      1.498759   372A      1.502111   373A      1.506563  
     374A      1.510673   375A      1.518457   376A      1.530029  
     377A      1.535329   378A      1.545062   379A      1.546251  
     380A      1.553177   381A      1.558269   382A      1.575153  
     383A      1.578267   384A      1.581251   385A      1.583247  
     386A      1.595025   387A      1.598649   388A      1.603548  
     389A      1.605258   390A      1.618171   391A      1.622504  
     392A      1.633737   393A      1.634606   394A      1.644542  
     395A      1.645201   396A      1.652712   397A      1.661924  
     398A      1.668624   399A      1.674994   400A      1.677031  
     401A      1.680453   402A      1.684138   403A      1.685202  
     404A      1.687120   405A      1.694983   406A      1.696583  
     407A      1.701189   408A      1.706549   409A      1.711111  
     410A      1.713402   411A      1.718684   412A      1.723486  
     413A      1.740917   414A      1.752315   415A      1.757209  
     416A      1.764453   417A      1.780907   418A      1.788550  
     419A      1.796410   420A      1.821220   421A      1.825449  
     422A      1.836781   423A      1.841316   424A      1.851703  
     425A      1.854680   426A      1.860338   427A      1.867442  
     428A      1.871885   429A      1.883348   430A      1.892252  
     431A      1.899251   432A      1.914155   433A      1.918740  
     434A      1.929417   435A      1.944202   436A      1.957359  
     437A      1.963027   438A      1.969301   439A      1.976959  
     440A      1.986669   441A      1.996141   442A      2.007154  
     443A      2.018274   444A      2.032604   445A      2.036272  
     446A      2.042793   447A      2.051532   448A      2.062839  
     449A      2.068849   450A      2.069394   451A      2.071011  
     452A      2.079003   453A      2.087766   454A      2.093752  
     455A      2.104917   456A      2.108183   457A      2.118689  
     458A      2.127722   459A      2.133764   460A      2.138373  
     461A      2.140974   462A      2.149707   463A      2.150568  
     464A      2.162406   465A      2.165548   466A      2.172900  
     467A      2.187956   468A      2.197125   469A      2.206057  
     470A      2.212323   471A      2.225003   472A      2.235145  
     473A      2.242705   474A      2.243322   475A      2.251360  
     476A      2.269988   477A      2.271348   478A      2.293421  
     479A      2.296499   480A      2.312219   481A      2.321302  
     482A      2.344966   483A      2.365489   484A      2.377105  
     485A      2.385529   486A      2.398401   487A      2.415561  
     488A      2.428326   489A      2.435723   490A      2.455107  
     491A      2.463394   492A      2.476347   493A      2.480853  
     494A      2.485437   495A      2.487557   496A      2.497493  
     497A      2.505818   498A      2.512783   499A      2.515142  
     500A      2.522954   501A      2.528314   502A      2.534973  
     503A      2.545867   504A      2.553944   505A      2.563681  
     506A      2.567264   507A      2.573697   508A      2.577971  
     509A      2.583268   510A      2.591325   511A      2.600805  
     512A      2.605543   513A      2.612448   514A      2.616382  
     515A      2.624813   516A      2.625376   517A      2.628157  
     518A      2.637336   519A      2.641809   520A      2.647373  
     521A      2.650455   522A      2.650955   523A      2.653883  
     524A      2.657621   525A      2.659694   526A      2.665568  
     527A      2.668485   528A      2.670557   529A      2.674500  
     530A      2.687600   531A      2.693406   532A      2.695389  
     533A      2.700035   534A      2.708434   535A      2.714608  
     536A      2.717788   537A      2.727882   538A      2.734208  
     539A      2.737734   540A      2.742451   541A      2.750123  
     542A      2.754129   543A      2.760518   544A      2.762588  
     545A      2.764232   546A      2.772613   547A      2.778702  
     548A      2.783262   549A      2.787308   550A      2.794155  
     551A      2.799632   552A      2.801499   553A      2.804192  
     554A      2.810904   555A      2.811631   556A      2.819791  
     557A      2.821317   558A      2.822164   559A      2.826467  
     560A      2.831692   561A      2.834637   562A      2.837852  
     563A      2.838594   564A      2.849989   565A      2.854306  
     566A      2.857169   567A      2.866173   568A      2.877200  
     569A      2.880877   570A      2.888183   571A      2.890178  
     572A      2.892101   573A      2.906331   574A      2.907992  
     575A      2.916535   576A      2.919966   577A      2.923002  
     578A      2.938187   579A      2.939002   580A      2.956829  
     581A      2.965887   582A      2.983229   583A      2.989357  
     584A      2.994909   585A      3.002207   586A      3.005999  
     587A      3.011670   588A      3.022148   589A      3.032821  
     590A      3.046288   591A      3.051708   592A      3.054819  
     593A      3.061315   594A      3.063865   595A      3.073378  
     596A      3.084825   597A      3.091506   598A      3.099677  
     599A      3.107489   600A      3.110086   601A      3.112403  
     602A      3.118779   603A      3.124598   604A      3.125040  
     605A      3.126873   606A      3.129280   607A      3.136838  
     608A      3.139323   609A      3.144078   610A      3.148729  
     611A      3.152042   612A      3.158852   613A      3.164283  
     614A      3.165991   615A      3.174231   616A      3.177991  
     617A      3.182329   618A      3.188228   619A      3.191337  
     620A      3.196186   621A      3.201646   622A      3.206260  
     623A      3.208902   624A      3.212158   625A      3.222478  
     626A      3.224954   627A      3.233821   628A      3.241727  
     629A      3.243950   630A      3.259836   631A      3.261758  
     632A      3.265471   633A      3.268389   634A      3.277273  
     635A      3.281659   636A      3.288617   637A      3.293178  
     638A      3.299910   639A      3.306974   640A      3.308395  
     641A      3.309404   642A      3.316694   643A      3.324248  
     644A      3.329838   645A      3.340345   646A      3.344127  
     647A      3.348109   648A      3.354176   649A      3.356874  
     650A      3.357778   651A      3.367613   652A      3.374815  
     653A      3.377486   654A      3.383076   655A      3.388884  
     656A      3.393749   657A      3.397292   658A      3.403115  
     659A      3.411074   660A      3.414671   661A      3.416393  
     662A      3.425155   663A      3.429123   664A      3.439880  
     665A      3.440555   666A      3.443755   667A      3.451792  
     668A      3.456356   669A      3.459819   670A      3.463411  
     671A      3.468414   672A      3.473212   673A      3.474021  
     674A      3.478157   675A      3.483107   676A      3.488173  
     677A      3.496776   678A      3.500836   679A      3.512848  
     680A      3.516900   681A      3.524186   682A      3.528900  
     683A      3.532326   684A      3.544869   685A      3.550632  
     686A      3.563148   687A      3.564317   688A      3.572473  
     689A      3.576632   690A      3.588699   691A      3.590059  
     692A      3.602132   693A      3.608379   694A      3.626541  
     695A      3.637529   696A      3.652968   697A      3.657661  
     698A      3.662177   699A      3.675045   700A      3.685678  
     701A      3.690921   702A      3.692129   703A      3.708490  
     704A      3.715123   705A      3.717722   706A      3.733236  
     707A      3.740206   708A      3.746652   709A      3.763328  
     710A      3.781322   711A      3.790006   712A      3.798311  
     713A      3.805643   714A      3.823248   715A      3.832635  
     716A      3.843934   717A      3.862899   718A      3.881682  
     719A      3.884769   720A      3.909723   721A      3.916560  
     722A      3.924622   723A      3.931878   724A      3.936780  
     725A      3.946751   726A      3.949558   727A      3.959803  
     728A      3.969794   729A      3.973751   730A      3.986509  
     731A      4.001866   732A      4.011733   733A      4.017450  
     734A      4.026707   735A      4.032496   736A      4.045130  
     737A      4.051270   738A      4.058547   739A      4.065657  
     740A      4.084024   741A      4.106408   742A      4.108630  
     743A      4.117350   744A      4.131517   745A      4.137967  
     746A      4.150950   747A      4.156059   748A      4.166431  
     749A      4.171587   750A      4.176712   751A      4.177779  
     752A      4.190747   753A      4.200684   754A      4.204866  
     755A      4.209046   756A      4.211089   757A      4.215837  
     758A      4.224518   759A      4.227183   760A      4.231243  
     761A      4.245803   762A      4.252506   763A      4.254865  
     764A      4.255680   765A      4.267034   766A      4.279693  
     767A      4.283297   768A      4.297736   769A      4.305545  
     770A      4.309518   771A      4.324878   772A      4.327613  
     773A      4.335566   774A      4.360301   775A      4.363333  
     776A      4.374245   777A      4.409963   778A      4.436593  
     779A      4.472048   780A      4.500895   781A      4.514681  
     782A      4.533947   783A      4.545761   784A      4.561917  
     785A      4.591489   786A      4.604013   787A      4.620366  
     788A      4.635296   789A      4.650769   790A      4.659158  
     791A      4.670000   792A      4.671513   793A      4.688595  
     794A      4.705289   795A      4.710154   796A      4.717633  
     797A      4.736065   798A      4.748248   799A      4.755806  
     800A      4.777821   801A      4.784734   802A      4.817733  
     803A      4.843931   804A      4.849709   805A      4.855326  
     806A      4.856785   807A      4.870328   808A      4.879957  
     809A      4.886123   810A      4.916499   811A      4.936627  
     812A      4.980164   813A      5.001162   814A      5.024674  
     815A      5.057052   816A      5.072403   817A      5.080916  
     818A      5.116627   819A      5.131429   820A      5.188614  
     821A      5.199127   822A      5.207847   823A      5.217271  
     824A      5.219669   825A      5.249609   826A      5.288383  
     827A      5.292352   828A      5.375050   829A      5.380498  
     830A      5.412764   831A      5.428484   832A      5.440293  
     833A      5.454107   834A      5.518258   835A      5.526599  
     836A      5.567539   837A      5.610655   838A      5.695201  
     839A      5.716860   840A      5.768896   841A     21.997002  
     842A     22.081614   843A     22.167931   844A     22.470869  
     845A     22.494947   846A     22.518979   847A     22.541624  
     848A     22.545957   849A     22.552140   850A     22.556959  
     851A     22.560677   852A     22.651262   853A     22.669683  
     854A     22.694135   855A     22.736459   856A     22.748525  
     857A     22.763316   858A     22.792618   859A     22.823337  
     860A     22.908927   861A     22.997961   862A     23.145590  
     863A     23.181585   864A     23.305070  

    Final Occupation by Irrep:
              A 
    DOCC [    82 ]
    NA   [    82 ]
    NB   [    82 ]

  @DF-RKS Final Energy:  -926.99535590858397

   => Energetics <=

    Nuclear Repulsion Energy =           1719.2103504759131738
    One-Electron Energy =               -4665.4461397164250229
    Two-Electron Energy =                2130.8369414491953648
    DFT Exchange-Correlation Energy =    -111.4959822902120976
    Empirical Dispersion Energy =          -0.1005258270555175
    VV10 Nonlocal Energy =                  0.0000000000000000
    Total Energy =                       -926.9953559085838606

Computation Completed


Properties will be evaluated at   0.000000,   0.000000,   0.000000 [a0]

Properties computed using the SCF density matrix


 Multipole Moments:

 ------------------------------------------------------------------------------------
     Multipole            Electronic (a.u.)      Nuclear  (a.u.)        Total (a.u.)
 ------------------------------------------------------------------------------------

 L = 1.  Multiply by 2.5417464519 to convert [e a0] to [Debye]
 Dipole X            :         -5.6333288            5.7744884            0.1411596
 Dipole Y            :         -1.9217252            1.9118432           -0.0098821
 Dipole Z            :          1.3375695           -1.3353674            0.0022022
 Magnitude           :                                                    0.1415222

 ------------------------------------------------------------------------------------

*** tstop() called on choehoyun-ui-MacBookAir.local at Sun Aug  9 04:14:12 2026
Module time:
	user time   =    1537.54 seconds =      25.63 minutes
	system time =      31.24 seconds =       0.52 minutes
	total time  =        259 seconds =       4.32 minutes
Total time:
	user time   =    1537.54 seconds =      25.63 minutes
	system time =      31.24 seconds =       0.52 minutes
	total time  =        259 seconds =       4.32 minutes

    Psi4 stopped on: Sunday, 09 August 2026 04:14AM
    Psi4 wall time for execution: 0:04:19.82

*** Psi4 exiting successfully. Buy a developer a beer!
