
    -----------------------------------------------------------------------
          Psi4: An Open-Source Ab Initio Electronic Structure Package
                               Psi4 1.11 release

                         Git: Rev {} zzzzzzz 


    D. G. A. Smith, L. A. Burns, A. C. Simmonett, R. M. Parrish,
    M. C. Schieber, R. Galvelis, P. Kraus, H. Kruse, R. Di Remigio,
    A. Alenaizan, A. M. James, S. Lehtola, J. P. Misiewicz, M. Scheurer,
    R. A. Shaw, J. B. Schriber, Y. Xie, Z. L. Glick, D. A. Sirianni,
    J. S. O'Brien, J. M. Waldrop, A. Kumar, E. G. Hohenstein,
    B. P. Pritchard, B. R. Brooks, H. F. Schaefer III, A. Yu. Sokolov,
    K. Patkowski, A. E. DePrince III, U. Bozkaya, R. A. King,
    F. A. Evangelista, J. M. Turney, T. D. Crawford, C. D. Sherrill,
    J. Chem. Phys. 152(18) 184108 (2020). https://doi.org/10.1063/5.0006002

                            Additional Code Authors
    E. T. Seidl, C. L. Janssen, E. F. Valeev, M. L. Leininger,
    J. F. Gonthier, R. M. Richard, H. R. McAlexander, M. Saitow, X. Wang,
    P. Verma, M. H. Lechner, A. Jiang, S. Behnle, A. G. Heide,
    M. F. Herbst, D. L. Poole, T. Győri, E. C. Mitchell, J. P. Pederson,
    and A. M. Wallace

             Previous Authors, Complete List of Code Contributors,
                       and Citations for Specific Modules
    https://github.com/psi4/psi4/blob/master/codemeta.json
    https://github.com/psi4/psi4/graphs/contributors
    https://psicode.org/psi4manual/master/introduction.html#citing-psifour

    -----------------------------------------------------------------------


    Psi4 started on: Sunday, 09 August 2026 02:06AM

    Process ID: 48985
    Host:       choehoyun-ui-MacBookAir.local
    PSIDATADIR: /Users/hoyoun/micromamba/envs/psi4env/share/psi4
    Memory:     500.0 MiB
    Threads:    8
    Addons:     a̶d̶c̶c̶, a̶m̶b̶i̶t̶, b̶s̶e̶, c̶c̶t̶3̶, c̶f̶o̶u̶r̶, c̶h̶e̶m̶p̶s̶2̶, c̶p̶p̶e̶, d̶d̶x̶, dftd3,
                d̶f̶t̶d̶4̶, dkh, ecpint, einsums, f̶o̶r̶t̶e̶, gauxc, g̶c̶p̶, g̶d̶m̶a̶,
                g̶e̶o̶m̶e̶t̶r̶i̶c̶, g̶p̶u̶_̶d̶f̶c̶c̶, i̶n̶t̶e̶g̶r̶a̶t̶o̶r̶x̶x̶, i̶p̶i̶,
                l̶i̶b̶e̶f̶p̶, m̶d̶i̶, m̶p̶2̶d̶, m̶r̶c̶c̶, ooo, o̶p̶e̶n̶f̶e̶r̶m̶i̶o̶n̶p̶s̶i̶4̶,
                pcmsolver, p̶s̶i̶4̶f̶o̶c̶k̶c̶i̶, p̶s̶i̶x̶a̶s̶, p̶y̶e̶i̶n̶s̶u̶m̶s̶, r̶e̶s̶p̶,
                s̶i̶m̶i̶n̶t̶, s̶n̶s̶m̶p̶2̶, v̶2̶r̶d̶m̶_̶c̶a̶s̶s̶c̶f̶

  ==> Input File <==

--------------------------------------------------------------------------
memory 3 GB
molecule mol {
0 1
N 2.47541602450406 0.16740006923987 0.42404708312597
H 2.79109343769540 1.05977558584559 0.77953039717658
C 1.25014968293885 0.23051028662085 -0.33748852775355
H 1.48562064331960 0.06524736734923 -1.39516374582836
C 0.23493030943656 -0.83627627721089 0.09137767357658
C 0.74023897661836 1.66681722456078 -0.19560250839968
H 0.78780734948396 -1.66843150986910 0.52490024492543
H -0.41390664187907 -0.42509498410733 0.86727280400331
C -0.57786334767776 -1.33862074047103 -1.09466826539390
O 1.49069531339734 2.56740682036968 0.18472818232135
H 0.08214719830350 -1.92724074306075 -1.73545118105023
H -0.94238110568541 -0.50904551195938 -1.69578386113944
C -1.76785889884638 -2.21339367872534 -0.70300036964129
H -1.42097891698235 -3.20403019705816 -0.41008390493903
H -2.42190046514896 -2.33563286908601 -1.56610689923362
N -2.57359086522508 -1.73055469405744 0.40868724787309
H -2.29997157884965 -2.03834033924799 1.32672522866001
C -3.19722257957795 -0.51489683150141 0.37617040245126
N -3.09834237503788 0.26354416072950 -0.65019433438209
N -3.88044339954978 -0.23897974964650 1.55948428026377
H -3.74329066392173 1.04265258447390 -0.54485100790145
H -4.46874505484622 0.57635426336177 1.50670641123723
H -4.36844677295131 -1.03162631069990 1.94709114405370
N -0.54330442070156 1.89125135419355 -0.53301117824564
C -1.08505382886265 3.22896018047426 -0.41652939731483
H -1.20080288991293 1.13437919254217 -0.68914648693938
H -0.42854417691577 3.93896121941815 -0.91249030717975
H -1.18362711861531 3.53510139375146 0.62513251453214
H -2.06109115989226 3.24657799283425 -0.89273172727354
C 3.35631571199814 -0.84250800271401 0.20589417944434
C 4.68973892644867 -0.70195383957645 0.89984682920753
O 3.08226951869395 -1.81201131445860 -0.49674630820341
H 4.72720733489933 0.14592083627491 1.57890966384904
H 4.89525044609284 -1.61720895770934 1.44882513402276
H 5.46325236920667 -0.59082898444848 0.14264559284587
units angstrom
no_reorient
no_com
}
set basis def2-TZVP
set scf_type df
set freeze_core true
set e_convergence 8
energy('b3lyp-d3bj')
--------------------------------------------------------------------------

  Memory set to   2.794 GiB by Python driver.

Scratch directory: /Users/hoyoun/Documents/Yonsei_AX_Camp/(진짜_이게_최종)/calibration/dft_work/_scratch/ARG_xak/
   => Libint2 <=

    Primary   basis highest AM E, G, H:  7, 6, 3
    Auxiliary basis highest AM E, G, H:  7, 7, 4
    Onebody   basis highest AM E, G, H:  -, -, -
    Solid Harmonics ordering:            Gaussian

*** tstart() called on choehoyun-ui-MacBookAir.local
*** at Sun Aug  9 02:06:09 2026

   => Loading Basis Set <=

    Name: DEF2-TZVP
    Role: ORBITAL
    Keyword: BASIS
    atoms 1, 16, 19-20, 24                                 entry N          line   156 file /Users/hoyoun/micromamba/envs/psi4env/share/psi4/basis/def2-tzvp.gbs 
    atoms 2, 4, 7-8, 11-12, 14-15, 17, 21-23, 26-29, 33-35 entry H          line    15 file /Users/hoyoun/micromamba/envs/psi4env/share/psi4/basis/def2-tzvp.gbs 
    atoms 3, 5-6, 9, 13, 18, 25, 30-31                     entry C          line   123 file /Users/hoyoun/micromamba/envs/psi4env/share/psi4/basis/def2-tzvp.gbs 
    atoms 10, 32                                           entry O          line   189 file /Users/hoyoun/micromamba/envs/psi4env/share/psi4/basis/def2-tzvp.gbs 

   => B3LYP-D3(BJ): Empirical Dispersion <=

    Grimme's -D3 (BJ-damping) Dispersion Correction
    Grimme S.; Ehrlich S.; Goerigk L. (2011), J. Comput. Chem., 32: 1456

        s6 =       1.000000
        s8 =       1.988900
        a1 =       0.398100
        a2 =       4.421100


         ---------------------------------------------------------
                                   SCF
               by Justin Turney, Rob Parrish, Andy Simmonett
                          and Daniel G. A. Smith
                              RKS Reference
                        8 Threads,   2861 MiB Core
         ---------------------------------------------------------

  ==> Geometry <==

    Molecular point group: c1
    Full point group: C1

    Geometry (in Angstrom), charge = 0, multiplicity = 1:

       Center              X                  Y                   Z               Mass       
    ------------   -----------------  -----------------  -----------------  -----------------
         N            2.475416024504     0.167400069240     0.424047083126    14.003074004430
         H            2.791093437695     1.059775585846     0.779530397177     1.007825032230
         C            1.250149682939     0.230510286621    -0.337488527754    12.000000000000
         H            1.485620643320     0.065247367349    -1.395163745828     1.007825032230
         C            0.234930309437    -0.836276277211     0.091377673577    12.000000000000
         C            0.740238976618     1.666817224561    -0.195602508400    12.000000000000
         H            0.787807349484    -1.668431509869     0.524900244925     1.007825032230
         H           -0.413906641879    -0.425094984107     0.867272804003     1.007825032230
         C           -0.577863347678    -1.338620740471    -1.094668265394    12.000000000000
         O            1.490695313397     2.567406820370     0.184728182321    15.994914619570
         H            0.082147198303    -1.927240743061    -1.735451181050     1.007825032230
         H           -0.942381105685    -0.509045511959    -1.695783861139     1.007825032230
         C           -1.767858898846    -2.213393678725    -0.703000369641    12.000000000000
         H           -1.420978916982    -3.204030197058    -0.410083904939     1.007825032230
         H           -2.421900465149    -2.335632869086    -1.566106899234     1.007825032230
         N           -2.573590865225    -1.730554694057     0.408687247873    14.003074004430
         H           -2.299971578850    -2.038340339248     1.326725228660     1.007825032230
         C           -3.197222579578    -0.514896831501     0.376170402451    12.000000000000
         N           -3.098342375038     0.263544160729    -0.650194334382    14.003074004430
         N           -3.880443399550    -0.238979749647     1.559484280264    14.003074004430
         H           -3.743290663922     1.042652584474    -0.544851007901     1.007825032230
         H           -4.468745054846     0.576354263362     1.506706411237     1.007825032230
         H           -4.368446772951    -1.031626310700     1.947091144054     1.007825032230
         N           -0.543304420702     1.891251354194    -0.533011178246    14.003074004430
         C           -1.085053828863     3.228960180474    -0.416529397315    12.000000000000
         H           -1.200802889913     1.134379192542    -0.689146486939     1.007825032230
         H           -0.428544176916     3.938961219418    -0.912490307180     1.007825032230
         H           -1.183627118615     3.535101393751     0.625132514532     1.007825032230
         H           -2.061091159892     3.246577992834    -0.892731727274     1.007825032230
         C            3.356315711998    -0.842508002714     0.205894179444    12.000000000000
         C            4.689738926449    -0.701953839576     0.899846829208    12.000000000000
         O            3.082269518694    -1.812011314459    -0.496746308203    15.994914619570
         H            4.727207334899     0.145920836275     1.578909663849     1.007825032230
         H            4.895250446093    -1.617208957709     1.448825134023     1.007825032230
         H            5.463252369207    -0.590828984448     0.142645592846     1.007825032230

  Running in c1 symmetry.

  Rotational constants: A =      0.02380  B =      0.01055  C =      0.00813 [cm^-1]
  Rotational constants: A =    713.42304  B =    316.17477  C =    243.78875 [MHz]
  Nuclear repulsion = 1188.259022230040500

  Charge       = 0
  Multiplicity = 1
  Electrons    = 124
  Nalpha       = 62
  Nbeta        = 62

  ==> Algorithm <==

  SCF Algorithm Type is DF.
  DIIS enabled.
  MOM disabled.
  Fractional occupation disabled.
  Guess Type is SAD.
  Energy threshold   = 1.00e-08
  Density threshold  = 1.00e-06
  Integral threshold = 1.00e-12

  ==> Primary Basis <==

  Basis Set: DEF2-TZVP
    Blend: DEF2-TZVP
    Number of shells: 252
    Number of basis functions: 610
    Number of Cartesian functions: 690
    Spherical Harmonics?: true
    Max angular momentum: 3

  ==> DFT Potential <==

   => LibXC <=

    Version 7.1.2
    S. Lehtola, C. Steigemann, M. J. T. Oliveira, and M. A. L. Marques,  SoftwareX 7, 1–5 (2018) (10.1016/j.softx.2017.11.002)

   => Composite Functional: B3LYP-D3BJ2B <= 

    B3LYP-d3bj2b Hyb-GGA Exchange-Correlation Functional

    P. J. Stephens, F. J. Devlin, C. F. Chabalowski, and M. J. Frisch,  J. Phys. Chem. 98, 11623 (1994) (10.1021/j100096a001)

    Deriv               =              1
    GGA                 =           TRUE
    Meta                =          FALSE

    Exchange Hybrid     =           TRUE
    MP2 Hybrid          =          FALSE

   => Exchange Functionals <=

    0.0800   Slater exchange
    0.7200         Becke 88

   => Exact (HF) Exchange <=

    0.2000               HF 

   => Correlation Functionals <=

    0.1900   Vosko, Wilk & Nusair (VWN5_RPA)
    0.8100   Lee, Yang & Parr

   => LibXC Density Thresholds  <==

    XC_HYB_GGA_XC_B3LYP:  1.00E-15 

   => Molecular Quadrature <=

    Radial Scheme          =       TREUTLER
    Pruning Scheme         =           NONE
    Nuclear Scheme         =       TREUTLER

    Blocking Scheme        =         OCTREE
    BS radius alpha        =              1
    Pruning alpha          =              1
    Radial Points          =             75
    Spherical Points       =            302
    Total Points           =         724091
    Total Blocks           =           5181
    Max Points             =            256
    Max Functions          =            463
    Weights Tolerance      =       1.00E-15

   => Loading Basis Set <=

    Name: (DEF2-TZVP AUX)
    Role: JKFIT
    Keyword: DF_BASIS_SCF
    atoms 1, 16, 19-20, 24                                 entry N          line   258 file /Users/hoyoun/micromamba/envs/psi4env/share/psi4/basis/def2-universal-jkfit.gbs 
    atoms 2, 4, 7-8, 11-12, 14-15, 17, 21-23, 26-29, 33-35 entry H          line    18 file /Users/hoyoun/micromamba/envs/psi4env/share/psi4/basis/def2-universal-jkfit.gbs 
    atoms 3, 5-6, 9, 13, 18, 25, 30-31                     entry C          line   198 file /Users/hoyoun/micromamba/envs/psi4env/share/psi4/basis/def2-universal-jkfit.gbs 
    atoms 10, 32                                           entry O          line   318 file /Users/hoyoun/micromamba/envs/psi4env/share/psi4/basis/def2-universal-jkfit.gbs 

  ==> Integral Setup <==

  ==> DiskDFJK: Density-Fitted J/K Matrices <==

    J tasked:                  Yes
    K tasked:                  Yes
    wK tasked:                  No
    OpenMP threads:              8
    Integrals threads:           8
    Memory [MiB]:             1809
    Algorithm:                Disk
    Integral Cache:           NONE
    Schwarz Cutoff:          1E-12
    Fitting Condition:       1E-10

   => Auxiliary Basis Set <=

  Basis Set: (DEF2-TZVP AUX)
    Blend: DEF2-UNIVERSAL-JKFIT
    Number of shells: 514
    Number of basis functions: 1556
    Number of Cartesian functions: 1832
    Spherical Harmonics?: true
    Max angular momentum: 4

  Cached 5.3% of DFT collocation blocks in 0.319 [GiB].

  Minimum eigenvalue in the overlap matrix is 4.9813015058E-05.
  Reciprocal condition number of the overlap matrix is 4.5674521377E-06.
    Using symmetric orthogonalization.

  ==> Pre-Iterations <==

  SCF Guess: Superposition of Atomic Densities via on-the-fly atomic UHF (no occupation information).

   -------------------------
    Irrep   Nso     Nmo    
   -------------------------
     A        610     610 
   -------------------------
    Total     610     610
   -------------------------

  ==> Iterations <==

                           Total Energy        Delta E     RMS |[F,P]|

   @DF-RKS iter SAD:  -778.14838435932836   -7.78148e+02   0.00000e+00 
   @DF-RKS iter   1:  -777.54923094275807    5.99153e-01   3.01586e-03 DIIS/ADIIS
   @DF-RKS iter   2:  -776.39367948394067    1.15555e+00   3.88137e-03 DIIS/ADIIS
   @DF-RKS iter   3:  -778.96961689345324   -2.57594e+00   6.02820e-04 DIIS/ADIIS
   @DF-RKS iter   4:  -779.01014279659330   -4.05259e-02   3.48711e-04 DIIS/ADIIS
   @DF-RKS iter   5:  -779.02675430776992   -1.66115e-02   1.13326e-04 DIIS/ADIIS
   @DF-RKS iter   6:  -779.02859394549137   -1.83964e-03   3.00961e-05 DIIS
   @DF-RKS iter   7:  -779.02869927284962   -1.05327e-04   1.29319e-05 DIIS
   @DF-RKS iter   8:  -779.02872333418452   -2.40613e-05   3.33592e-06 DIIS
   @DF-RKS iter   9:  -779.02872476752555   -1.43334e-06   1.31834e-06 DIIS
   @DF-RKS iter  10:  -779.02872501735385   -2.49828e-07   2.92346e-07 DIIS
   @DF-RKS iter  11:  -779.02872502735681   -1.00030e-08   1.50578e-07 DIIS
   @DF-RKS iter  12:  -779.02872503022934   -2.87253e-09   5.10511e-08 DIIS
  Energy and wave function converged.


  ==> Post-Iterations <==

   Electrons on quadrature grid:
      Ntotal   =  124.0000226775 ; deviation = 2.268e-05 

    Orbital Energies [Eh]
    ---------------------

    Doubly Occupied:                                                      

       1A    -19.089710     2A    -19.078231     3A    -14.348000  
       4A    -14.343877     5A    -14.332217     6A    -14.326362  
       7A    -14.286743     8A    -10.286001     9A    -10.266791  
      10A    -10.261466    11A    -10.212509    12A    -10.208976  
      13A    -10.196928    14A    -10.167793    15A    -10.166881  
      16A    -10.164120    17A     -1.038849    18A     -1.024200  
      19A     -1.002426    20A     -0.920661    21A     -0.917432  
      22A     -0.909703    23A     -0.865141    24A     -0.801576  
      25A     -0.755760    26A     -0.725461    27A     -0.701955  
      28A     -0.663682    29A     -0.625148    30A     -0.592743  
      31A     -0.583079    32A     -0.569945    33A     -0.562856  
      34A     -0.540960    35A     -0.532591    36A     -0.487730  
      37A     -0.482128    38A     -0.472504    39A     -0.466767  
      40A     -0.461030    41A     -0.448402    42A     -0.447741  
      43A     -0.443554    44A     -0.434451    45A     -0.412433  
      46A     -0.409733    47A     -0.399835    48A     -0.396294  
      49A     -0.394686    50A     -0.386151    51A     -0.369115  
      52A     -0.366580    53A     -0.349385    54A     -0.340000  
      55A     -0.335574    56A     -0.294799    57A     -0.282359  
      58A     -0.266511    59A     -0.263696    60A     -0.251542  
      61A     -0.249811    62A     -0.246979  

    Virtual:                                                              

      63A     -0.001357    64A      0.014072    65A      0.016999  
      66A      0.027455    67A      0.033726    68A      0.046441  
      69A      0.052680    70A      0.057332    71A      0.065573  
      72A      0.081735    73A      0.082097    74A      0.086279  
      75A      0.094700    76A      0.097854    77A      0.110096  
      78A      0.116860    79A      0.126770    80A      0.128974  
      81A      0.130460    82A      0.135417    83A      0.137492  
      84A      0.147561    85A      0.152139    86A      0.168097  
      87A      0.173434    88A      0.180196    89A      0.185625  
      90A      0.196542    91A      0.199763    92A      0.210934  
      93A      0.213349    94A      0.215192    95A      0.225092  
      96A      0.227406    97A      0.233678    98A      0.237842  
      99A      0.250484   100A      0.253021   101A      0.257600  
     102A      0.263929   103A      0.269568   104A      0.275769  
     105A      0.288326   106A      0.289198   107A      0.301368  
     108A      0.305428   109A      0.318125   110A      0.327660  
     111A      0.334484   112A      0.342288   113A      0.346698  
     114A      0.353327   115A      0.359187   116A      0.364392  
     117A      0.367342   118A      0.368886   119A      0.373130  
     120A      0.377260   121A      0.393312   122A      0.399703  
     123A      0.404241   124A      0.411315   125A      0.412637  
     126A      0.414871   127A      0.420815   128A      0.424396  
     129A      0.429407   130A      0.433990   131A      0.440340  
     132A      0.443516   133A      0.446567   134A      0.452736  
     135A      0.454650   136A      0.458734   137A      0.463134  
     138A      0.466429   139A      0.473891   140A      0.477671  
     141A      0.481802   142A      0.486021   143A      0.493976  
     144A      0.499683   145A      0.503558   146A      0.513933  
     147A      0.515941   148A      0.517731   149A      0.527165  
     150A      0.531569   151A      0.544087   152A      0.547415  
     153A      0.552699   154A      0.558557   155A      0.572784  
     156A      0.577587   157A      0.583457   158A      0.588628  
     159A      0.593503   160A      0.600514   161A      0.610502  
     162A      0.624377   163A      0.637199   164A      0.640485  
     165A      0.646110   166A      0.661576   167A      0.664985  
     168A      0.667462   169A      0.687878   170A      0.692277  
     171A      0.705591   172A      0.726194   173A      0.727647  
     174A      0.737370   175A      0.748689   176A      0.760572  
     177A      0.762543   178A      0.770284   179A      0.783983  
     180A      0.801129   181A      0.801737   182A      0.818376  
     183A      0.832558   184A      0.844385   185A      0.849411  
     186A      0.861642   187A      0.870815   188A      0.875774  
     189A      0.888988   190A      0.900804   191A      0.912199  
     192A      0.919962   193A      0.926890   194A      0.934111  
     195A      0.951673   196A      0.964267   197A      0.965324  
     198A      0.980247   199A      0.989354   200A      0.997093  
     201A      1.007889   202A      1.020784   203A      1.034947  
     204A      1.041445   205A      1.048853   206A      1.059301  
     207A      1.089539   208A      1.101160   209A      1.108990  
     210A      1.119131   211A      1.128508   212A      1.133974  
     213A      1.140756   214A      1.148854   215A      1.156001  
     216A      1.190216   217A      1.191048   218A      1.215493  
     219A      1.225064   220A      1.228975   221A      1.238857  
     222A      1.259126   223A      1.271498   224A      1.274280  
     225A      1.280626   226A      1.300294   227A      1.304364  
     228A      1.322317   229A      1.331323   230A      1.341656  
     231A      1.346627   232A      1.362059   233A      1.371044  
     234A      1.397594   235A      1.401363   236A      1.414057  
     237A      1.428220   238A      1.442520   239A      1.448447  
     240A      1.459346   241A      1.470810   242A      1.479428  
     243A      1.486746   244A      1.497559   245A      1.505481  
     246A      1.513736   247A      1.522461   248A      1.524950  
     249A      1.530265   250A      1.538982   251A      1.541454  
     252A      1.550281   253A      1.553744   254A      1.560493  
     255A      1.570271   256A      1.574222   257A      1.586934  
     258A      1.589657   259A      1.594633   260A      1.604283  
     261A      1.607410   262A      1.625896   263A      1.632255  
     264A      1.641295   265A      1.643910   266A      1.664534  
     267A      1.674859   268A      1.685119   269A      1.707605  
     270A      1.717035   271A      1.726774   272A      1.740830  
     273A      1.745171   274A      1.747811   275A      1.753287  
     276A      1.759418   277A      1.772838   278A      1.780941  
     279A      1.786077   280A      1.797586   281A      1.816858  
     282A      1.838271   283A      1.845801   284A      1.852918  
     285A      1.862761   286A      1.881118   287A      1.882530  
     288A      1.900981   289A      1.904345   290A      1.916692  
     291A      1.925691   292A      1.939835   293A      1.944985  
     294A      1.955230   295A      1.960968   296A      1.981557  
     297A      1.987028   298A      1.995545   299A      2.001118  
     300A      2.013807   301A      2.019054   302A      2.026449  
     303A      2.035159   304A      2.056461   305A      2.058124  
     306A      2.075072   307A      2.089825   308A      2.099517  
     309A      2.101009   310A      2.129164   311A      2.132639  
     312A      2.153146   313A      2.172615   314A      2.176204  
     315A      2.187660   316A      2.190200   317A      2.209647  
     318A      2.218317   319A      2.235098   320A      2.240038  
     321A      2.250333   322A      2.264570   323A      2.284041  
     324A      2.291531   325A      2.303118   326A      2.311433  
     327A      2.325662   328A      2.330563   329A      2.331423  
     330A      2.340930   331A      2.345356   332A      2.357292  
     333A      2.375811   334A      2.382359   335A      2.391369  
     336A      2.401790   337A      2.410296   338A      2.414768  
     339A      2.431283   340A      2.433801   341A      2.452909  
     342A      2.460518   343A      2.479362   344A      2.488515  
     345A      2.501727   346A      2.516166   347A      2.527590  
     348A      2.532990   349A      2.540093   350A      2.560946  
     351A      2.562917   352A      2.566689   353A      2.578295  
     354A      2.583192   355A      2.591789   356A      2.607307  
     357A      2.617280   358A      2.624373   359A      2.640895  
     360A      2.651618   361A      2.657202   362A      2.665242  
     363A      2.693746   364A      2.711632   365A      2.719112  
     366A      2.733112   367A      2.735989   368A      2.756082  
     369A      2.760160   370A      2.772331   371A      2.782241  
     372A      2.791770   373A      2.794289   374A      2.803007  
     375A      2.823179   376A      2.828075   377A      2.853544  
     378A      2.863697   379A      2.877430   380A      2.882399  
     381A      2.894041   382A      2.912462   383A      2.922540  
     384A      2.929356   385A      2.942495   386A      2.952961  
     387A      2.955378   388A      2.979367   389A      2.980370  
     390A      2.995602   391A      3.005770   392A      3.007644  
     393A      3.015313   394A      3.026177   395A      3.033863  
     396A      3.061047   397A      3.070885   398A      3.078122  
     399A      3.082771   400A      3.090562   401A      3.108785  
     402A      3.113381   403A      3.116491   404A      3.123606  
     405A      3.125986   406A      3.139261   407A      3.141581  
     408A      3.160940   409A      3.172633   410A      3.192301  
     411A      3.198018   412A      3.205388   413A      3.207542  
     414A      3.218568   415A      3.225004   416A      3.235878  
     417A      3.238338   418A      3.248855   419A      3.262050  
     420A      3.281944   421A      3.284212   422A      3.288226  
     423A      3.294479   424A      3.309848   425A      3.314058  
     426A      3.325109   427A      3.330244   428A      3.333390  
     429A      3.343158   430A      3.344497   431A      3.365980  
     432A      3.371587   433A      3.377615   434A      3.391478  
     435A      3.410094   436A      3.416404   437A      3.430393  
     438A      3.449913   439A      3.460229   440A      3.468962  
     441A      3.473221   442A      3.489262   443A      3.495923  
     444A      3.505825   445A      3.526566   446A      3.538219  
     447A      3.547260   448A      3.561452   449A      3.568292  
     450A      3.570086   451A      3.582311   452A      3.599278  
     453A      3.630808   454A      3.642885   455A      3.652892  
     456A      3.677422   457A      3.686647   458A      3.700014  
     459A      3.714369   460A      3.726048   461A      3.731769  
     462A      3.752146   463A      3.770865   464A      3.780419  
     465A      3.792008   466A      3.803326   467A      3.831150  
     468A      3.844512   469A      3.856996   470A      3.878568  
     471A      3.894864   472A      3.910007   473A      3.919930  
     474A      3.927133   475A      3.932039   476A      3.945635  
     477A      3.971287   478A      3.994971   479A      4.009623  
     480A      4.029332   481A      4.070930   482A      4.086966  
     483A      4.098459   484A      4.114583   485A      4.146472  
     486A      4.171781   487A      4.184992   488A      4.201430  
     489A      4.217419   490A      4.250595   491A      4.259678  
     492A      4.287188   493A      4.303330   494A      4.316895  
     495A      4.332840   496A      4.341283   497A      4.368069  
     498A      4.381212   499A      4.393148   500A      4.396377  
     501A      4.420887   502A      4.432637   503A      4.446116  
     504A      4.462346   505A      4.488385   506A      4.518763  
     507A      4.527441   508A      4.580396   509A      4.597258  
     510A      4.608355   511A      4.617779   512A      4.667491  
     513A      4.690679   514A      4.711439   515A      4.719484  
     516A      4.725476   517A      4.742911   518A      4.762539  
     519A      4.776943   520A      4.797703   521A      4.811005  
     522A      4.822854   523A      4.830511   524A      4.853401  
     525A      4.866455   526A      4.897902   527A      4.917125  
     528A      4.922487   529A      4.949601   530A      4.978973  
     531A      4.991406   532A      5.008409   533A      5.018903  
     534A      5.025453   535A      5.056327   536A      5.070236  
     537A      5.077939   538A      5.096598   539A      5.116658  
     540A      5.132608   541A      5.137203   542A      5.149080  
     543A      5.171580   544A      5.190137   545A      5.205148  
     546A      5.220124   547A      5.229890   548A      5.236099  
     549A      5.241670   550A      5.253757   551A      5.264798  
     552A      5.292833   553A      5.304280   554A      5.327178  
     555A      5.345947   556A      5.354353   557A      5.388045  
     558A      5.423448   559A      5.471531   560A      5.482665  
     561A      5.491561   562A      5.518108   563A      5.525691  
     564A      5.547397   565A      5.604090   566A      5.623506  
     567A      5.641002   568A      5.656294   569A      5.681207  
     570A      5.730576   571A      5.778870   572A      5.843378  
     573A      5.882171   574A      5.905493   575A      5.931072  
     576A      5.952183   577A      6.002236   578A      6.120853  
     579A      6.140510   580A      6.291833   581A      6.336531  
     582A      6.344980   583A      6.423123   584A      6.450228  
     585A      6.577061   586A      6.596258   587A      6.715953  
     588A      6.727650   589A      6.845719   590A      6.852191  
     591A      7.073320   592A      7.102107   593A      7.104793  
     594A      7.157286   595A     22.324223   596A     22.408600  
     597A     22.540725   598A     22.559088   599A     22.578962  
     600A     22.754018   601A     23.167528   602A     23.320605  
     603A     23.370072   604A     31.917515   605A     32.046687  
     606A     32.470474   607A     32.515598   608A     32.552520  
     609A     43.918399   610A     43.954707  

    Final Occupation by Irrep:
              A 
    DOCC [    62 ]
    NA   [    62 ]
    NB   [    62 ]

  @DF-RKS Final Energy:  -779.02872503022934

   => Energetics <=

    Nuclear Repulsion Energy =           1188.2590222300405003
    One-Electron Energy =               -3419.1894800732065960
    Two-Electron Energy =                1539.3630188440979509
    DFT Exchange-Correlation Energy =     -87.3976644172438171
    Empirical Dispersion Energy =          -0.0636216139172304
    VV10 Nonlocal Energy =                  0.0000000000000000
    Total Energy =                       -779.0287250302292250

Computation Completed


Properties will be evaluated at   0.000000,   0.000000,   0.000000 [a0]

Properties computed using the SCF density matrix


 Multipole Moments:

 ------------------------------------------------------------------------------------
     Multipole            Electronic (a.u.)      Nuclear  (a.u.)        Total (a.u.)
 ------------------------------------------------------------------------------------

 L = 1.  Multiply by 2.5417464519 to convert [e a0] to [Debye]
 Dipole X            :         -2.8321136            0.7196178           -2.1124958
 Dipole Y            :         -0.1249240           -0.0356932           -0.1606172
 Dipole Z            :          1.4154030           -0.3233760            1.0920270
 Magnitude           :                                                    2.3834763

 ------------------------------------------------------------------------------------

*** tstop() called on choehoyun-ui-MacBookAir.local at Sun Aug  9 02:07:09 2026
Module time:
	user time   =     393.49 seconds =       6.56 minutes
	system time =       6.84 seconds =       0.11 minutes
	total time  =         60 seconds =       1.00 minutes
Total time:
	user time   =     393.49 seconds =       6.56 minutes
	system time =       6.84 seconds =       0.11 minutes
	total time  =         60 seconds =       1.00 minutes

    Psi4 stopped on: Sunday, 09 August 2026 02:07AM
    Psi4 wall time for execution: 0:01:00.16

*** Psi4 exiting successfully. Buy a developer a beer!
