
    -----------------------------------------------------------------------
          Psi4: An Open-Source Ab Initio Electronic Structure Package
                               Psi4 1.11 release

                         Git: Rev {} zzzzzzz 


    D. G. A. Smith, L. A. Burns, A. C. Simmonett, R. M. Parrish,
    M. C. Schieber, R. Galvelis, P. Kraus, H. Kruse, R. Di Remigio,
    A. Alenaizan, A. M. James, S. Lehtola, J. P. Misiewicz, M. Scheurer,
    R. A. Shaw, J. B. Schriber, Y. Xie, Z. L. Glick, D. A. Sirianni,
    J. S. O'Brien, J. M. Waldrop, A. Kumar, E. G. Hohenstein,
    B. P. Pritchard, B. R. Brooks, H. F. Schaefer III, A. Yu. Sokolov,
    K. Patkowski, A. E. DePrince III, U. Bozkaya, R. A. King,
    F. A. Evangelista, J. M. Turney, T. D. Crawford, C. D. Sherrill,
    J. Chem. Phys. 152(18) 184108 (2020). https://doi.org/10.1063/5.0006002

                            Additional Code Authors
    E. T. Seidl, C. L. Janssen, E. F. Valeev, M. L. Leininger,
    J. F. Gonthier, R. M. Richard, H. R. McAlexander, M. Saitow, X. Wang,
    P. Verma, M. H. Lechner, A. Jiang, S. Behnle, A. G. Heide,
    M. F. Herbst, D. L. Poole, T. Győri, E. C. Mitchell, J. P. Pederson,
    and A. M. Wallace

             Previous Authors, Complete List of Code Contributors,
                       and Citations for Specific Modules
    https://github.com/psi4/psi4/blob/master/codemeta.json
    https://github.com/psi4/psi4/graphs/contributors
    https://psicode.org/psi4manual/master/introduction.html#citing-psifour

    -----------------------------------------------------------------------


    Psi4 started on: Sunday, 09 August 2026 01:27AM

    Process ID: 42302
    Host:       choehoyun-ui-MacBookAir.local
    PSIDATADIR: /Users/hoyoun/micromamba/envs/psi4env/share/psi4
    Memory:     500.0 MiB
    Threads:    1
    Addons:     a̶d̶c̶c̶, a̶m̶b̶i̶t̶, b̶s̶e̶, c̶c̶t̶3̶, c̶f̶o̶u̶r̶, c̶h̶e̶m̶p̶s̶2̶, c̶p̶p̶e̶, d̶d̶x̶, dftd3,
                d̶f̶t̶d̶4̶, dkh, ecpint, einsums, f̶o̶r̶t̶e̶, gauxc, g̶c̶p̶, g̶d̶m̶a̶,
                g̶e̶o̶m̶e̶t̶r̶i̶c̶, g̶p̶u̶_̶d̶f̶c̶c̶, i̶n̶t̶e̶g̶r̶a̶t̶o̶r̶x̶x̶, i̶p̶i̶,
                l̶i̶b̶e̶f̶p̶, m̶d̶i̶, m̶p̶2̶d̶, m̶r̶c̶c̶, ooo, o̶p̶e̶n̶f̶e̶r̶m̶i̶o̶n̶p̶s̶i̶4̶,
                pcmsolver, p̶s̶i̶4̶f̶o̶c̶k̶c̶i̶, p̶s̶i̶x̶a̶s̶, p̶y̶e̶i̶n̶s̶u̶m̶s̶, r̶e̶s̶p̶,
                s̶i̶m̶i̶n̶t̶, s̶n̶s̶m̶p̶2̶, v̶2̶r̶d̶m̶_̶c̶a̶s̶s̶c̶f̶

  ==> Input File <==

--------------------------------------------------------------------------
memory 6 GB
molecule mol {
0 1
N -1.31640780263813 0.33511707945675 0.09330499904707
C -1.37425122213197 -1.09368424335120 -0.22388464648632
C -0.16097204999965 -1.89479238207552 0.26793528855692
C 1.14149085697268 -1.25102512639997 -0.22084040127425
C 1.18907799748915 0.23868226211043 0.14203005387284
C -0.06993382029080 0.97920913231832 -0.34510418711462
C -0.07728389056579 2.44492035204841 0.07545491607768
H -1.43043708469396 0.47034081415854 1.09432469211710
H -2.30142603351728 -1.49897344989553 0.18920883109230
H -1.45078685001510 -1.18745440127752 -1.31383274891281
H -0.23106904694665 -2.93240664830295 -0.07472120306004
H -0.16796882700996 -1.92185783518910 1.36447717115480
H 2.00851952876385 -1.77245266212583 0.19456230967316
H 1.20786780069802 -1.35793642054588 -1.31057678261547
H 2.08414559775848 0.70496349841461 -0.28312005899228
H 1.26215731771030 0.34978037715806 1.23180220968340
H -0.07686670381322 0.93680098937356 -1.44270272906620
H -0.08460574244215 2.53608915871629 1.16677377173728
H 0.81125821198830 2.96291987111506 -0.29274898492328
H -0.96250823731611 2.95175963429350 -0.31234250056731
units angstrom
no_reorient
no_com
}
set basis def2-TZVP
set scf_type df
set freeze_core true
energy('b3lyp-d3bj')
--------------------------------------------------------------------------

  Memory set to   5.588 GiB by Python driver.

Scratch directory: /tmp/
   => Libint2 <=

    Primary   basis highest AM E, G, H:  7, 6, 3
    Auxiliary basis highest AM E, G, H:  7, 7, 4
    Onebody   basis highest AM E, G, H:  -, -, -
    Solid Harmonics ordering:            Gaussian

*** tstart() called on choehoyun-ui-MacBookAir.local
*** at Sun Aug  9 01:27:14 2026

   => Loading Basis Set <=

    Name: DEF2-TZVP
    Role: ORBITAL
    Keyword: BASIS
    atoms 1    entry N          line   156 file /Users/hoyoun/micromamba/envs/psi4env/share/psi4/basis/def2-tzvp.gbs 
    atoms 2-7  entry C          line   123 file /Users/hoyoun/micromamba/envs/psi4env/share/psi4/basis/def2-tzvp.gbs 
    atoms 8-20 entry H          line    15 file /Users/hoyoun/micromamba/envs/psi4env/share/psi4/basis/def2-tzvp.gbs 

   => B3LYP-D3(BJ): Empirical Dispersion <=

    Grimme's -D3 (BJ-damping) Dispersion Correction
    Grimme S.; Ehrlich S.; Goerigk L. (2011), J. Comput. Chem., 32: 1456

        s6 =       1.000000
        s8 =       1.988900
        a1 =       0.398100
        a2 =       4.421100


         ---------------------------------------------------------
                                   SCF
               by Justin Turney, Rob Parrish, Andy Simmonett
                          and Daniel G. A. Smith
                              RKS Reference
                        1 Threads,   5722 MiB Core
         ---------------------------------------------------------

  ==> Geometry <==

    Molecular point group: c1
    Full point group: C1

    Geometry (in Angstrom), charge = 0, multiplicity = 1:

       Center              X                  Y                   Z               Mass       
    ------------   -----------------  -----------------  -----------------  -----------------
         N           -1.316407802638     0.335117079457     0.093304999047    14.003074004430
         C           -1.374251222132    -1.093684243351    -0.223884646486    12.000000000000
         C           -0.160972050000    -1.894792382076     0.267935288557    12.000000000000
         C            1.141490856973    -1.251025126400    -0.220840401274    12.000000000000
         C            1.189077997489     0.238682262110     0.142030053873    12.000000000000
         C           -0.069933820291     0.979209132318    -0.345104187115    12.000000000000
         C           -0.077283890566     2.444920352048     0.075454916078    12.000000000000
         H           -1.430437084694     0.470340814159     1.094324692117     1.007825032230
         H           -2.301426033517    -1.498973449896     0.189208831092     1.007825032230
         H           -1.450786850015    -1.187454401278    -1.313832748913     1.007825032230
         H           -0.231069046947    -2.932406648303    -0.074721203060     1.007825032230
         H           -0.167968827010    -1.921857835189     1.364477171155     1.007825032230
         H            2.008519528764    -1.772452662126     0.194562309673     1.007825032230
         H            1.207867800698    -1.357936420546    -1.310576782615     1.007825032230
         H            2.084145597758     0.704963498415    -0.283120058992     1.007825032230
         H            1.262157317710     0.349780377158     1.231802209683     1.007825032230
         H           -0.076866703813     0.936800989374    -1.442702729066     1.007825032230
         H           -0.084605742442     2.536089158716     1.166773771737     1.007825032230
         H            0.811258211988     2.962919871115    -0.292748984923     1.007825032230
         H           -0.962508237316     2.951759634293    -0.312342500567     1.007825032230

  Running in c1 symmetry.

  Rotational constants: A =      0.14224  B =      0.07510  C =      0.05414 [cm^-1]
  Rotational constants: A =   4264.30137  B =   2251.52859  C =   1623.13635 [MHz]
  Nuclear repulsion =  331.810483301023737

  Charge       = 0
  Multiplicity = 1
  Electrons    = 56
  Nalpha       = 28
  Nbeta        = 28

  ==> Algorithm <==

  SCF Algorithm Type is DF.
  DIIS enabled.
  MOM disabled.
  Fractional occupation disabled.
  Guess Type is SAD.
  Energy threshold   = 1.00e-06
  Density threshold  = 1.00e-06
  Integral threshold = 1.00e-12

  ==> Primary Basis <==

  Basis Set: DEF2-TZVP
    Blend: DEF2-TZVP
    Number of shells: 129
    Number of basis functions: 295
    Number of Cartesian functions: 330
    Spherical Harmonics?: true
    Max angular momentum: 3

  ==> DFT Potential <==

   => LibXC <=

    Version 7.1.2
    S. Lehtola, C. Steigemann, M. J. T. Oliveira, and M. A. L. Marques,  SoftwareX 7, 1–5 (2018) (10.1016/j.softx.2017.11.002)

   => Composite Functional: B3LYP-D3BJ2B <= 

    B3LYP-d3bj2b Hyb-GGA Exchange-Correlation Functional

    P. J. Stephens, F. J. Devlin, C. F. Chabalowski, and M. J. Frisch,  J. Phys. Chem. 98, 11623 (1994) (10.1021/j100096a001)

    Deriv               =              1
    GGA                 =           TRUE
    Meta                =          FALSE

    Exchange Hybrid     =           TRUE
    MP2 Hybrid          =          FALSE

   => Exchange Functionals <=

    0.0800   Slater exchange
    0.7200         Becke 88

   => Exact (HF) Exchange <=

    0.2000               HF 

   => Correlation Functionals <=

    0.1900   Vosko, Wilk & Nusair (VWN5_RPA)
    0.8100   Lee, Yang & Parr

   => LibXC Density Thresholds  <==

    XC_HYB_GGA_XC_B3LYP:  1.00E-15 

   => Molecular Quadrature <=

    Radial Scheme          =       TREUTLER
    Pruning Scheme         =           NONE
    Nuclear Scheme         =       TREUTLER

    Blocking Scheme        =         OCTREE
    BS radius alpha        =              1
    Pruning alpha          =              1
    Radial Points          =             75
    Spherical Points       =            302
    Total Points           =         418974
    Total Blocks           =           3075
    Max Points             =            256
    Max Functions          =            285
    Weights Tolerance      =       1.00E-15

   => Loading Basis Set <=

    Name: (DEF2-TZVP AUX)
    Role: JKFIT
    Keyword: DF_BASIS_SCF
    atoms 1    entry N          line   258 file /Users/hoyoun/micromamba/envs/psi4env/share/psi4/basis/def2-universal-jkfit.gbs 
    atoms 2-7  entry C          line   198 file /Users/hoyoun/micromamba/envs/psi4env/share/psi4/basis/def2-universal-jkfit.gbs 
    atoms 8-20 entry H          line    18 file /Users/hoyoun/micromamba/envs/psi4env/share/psi4/basis/def2-universal-jkfit.gbs 

  ==> Integral Setup <==

  DFHelper Memory: AOs need 0.500 GiB; user supplied 1.518 GiB. 
  SCF_SUBTYPE=INCORE selected. In-core MEM_DF algorithm will be used.
  Using in-core AOs.

  ==> MemDFJK: Density-Fitted J/K Matrices <==

    J tasked:                   Yes
    K tasked:                   Yes
    wK tasked:                   No
    OpenMP threads:               1
    Memory [MiB]:              1554
    Algorithm:                 Core
    Schwarz Cutoff:           1E-12
    Mask sparsity (%):       3.1577
    Fitting Condition:        1E-10

   => Auxiliary Basis Set <=

  Basis Set: (DEF2-TZVP AUX)
    Blend: DEF2-UNIVERSAL-JKFIT
    Number of shells: 253
    Number of basis functions: 761
    Number of Cartesian functions: 887
    Spherical Harmonics?: true
    Max angular momentum: 4

  Cached 100.0% of DFT collocation blocks in 2.673 [GiB].

  Minimum eigenvalue in the overlap matrix is 1.1543342950E-04.
  Reciprocal condition number of the overlap matrix is 1.0489937187E-05.
    Using symmetric orthogonalization.

  ==> Pre-Iterations <==

  SCF Guess: Superposition of Atomic Densities via on-the-fly atomic UHF (no occupation information).

   -------------------------
    Irrep   Nso     Nmo    
   -------------------------
     A        295     295 
   -------------------------
    Total     295     295
   -------------------------

  ==> Iterations <==

                           Total Energy        Delta E     RMS |[F,P]|

   @DF-RKS iter SAD:  -290.85740309308875   -2.90857e+02   0.00000e+00 
   @DF-RKS iter   1:  -290.49655365937593    3.60849e-01   4.40787e-03 ADIIS/DIIS
   @DF-RKS iter   2:  -289.34347420183076    1.15308e+00   6.60928e-03 ADIIS/DIIS
   @DF-RKS iter   3:  -291.33524494938519   -1.99177e+00   8.24302e-04 ADIIS/DIIS
   @DF-RKS iter   4:  -291.35479769447062   -1.95527e-02   4.59689e-04 ADIIS/DIIS
   @DF-RKS iter   5:  -291.36250342214470   -7.70573e-03   1.03604e-04 ADIIS/DIIS
   @DF-RKS iter   6:  -291.36286945772088   -3.66036e-04   3.17651e-05 DIIS
   @DF-RKS iter   7:  -291.36290441222195   -3.49545e-05   7.40545e-06 DIIS
   @DF-RKS iter   8:  -291.36290668161246   -2.26939e-06   8.47454e-07 DIIS
   @DF-RKS iter   9:  -291.36290670886103   -2.72486e-08   3.77190e-07 DIIS
  Energy and wave function converged.


  ==> Post-Iterations <==

   Electrons on quadrature grid:
      Ntotal   =   56.0001012703 ; deviation = 1.013e-04 

    Orbital Energies [Eh]
    ---------------------

    Doubly Occupied:                                                      

       1A    -14.292565     2A    -10.193772     3A    -10.186834  
       4A    -10.164938     5A    -10.162471     6A    -10.161641  
       7A    -10.156729     8A     -0.907648     9A     -0.781994  
      10A     -0.769402    11A     -0.689023    12A     -0.629687  
      13A     -0.596868    14A     -0.569474    15A     -0.477485  
      16A     -0.460708    17A     -0.454368    18A     -0.437425  
      19A     -0.424360    20A     -0.397115    21A     -0.375106  
      22A     -0.369853    23A     -0.363462    24A     -0.340871  
      25A     -0.334690    26A     -0.323045    27A     -0.315506  
      28A     -0.218710  

    Virtual:                                                              

      29A      0.031330    30A      0.046264    31A      0.052009  
      32A      0.066335    33A      0.088490    34A      0.100617  
      35A      0.102110    36A      0.103344    37A      0.109218  
      38A      0.121616    39A      0.122796    40A      0.131150  
      41A      0.144323    42A      0.155597    43A      0.172377  
      44A      0.177343    45A      0.199454    46A      0.205138  
      47A      0.213422    48A      0.229472    49A      0.232405  
      50A      0.237309    51A      0.253147    52A      0.255497  
      53A      0.278462    54A      0.297187    55A      0.305168  
      56A      0.320981    57A      0.346777    58A      0.348335  
      59A      0.373835    60A      0.385688    61A      0.393677  
      62A      0.404859    63A      0.410497    64A      0.419737  
      65A      0.427481    66A      0.431309    67A      0.434089  
      68A      0.441506    69A      0.444309    70A      0.448693  
      71A      0.451652    72A      0.464936    73A      0.467845  
      74A      0.471460    75A      0.485675    76A      0.487282  
      77A      0.496183    78A      0.503204    79A      0.533955  
      80A      0.556406    81A      0.573343    82A      0.584859  
      83A      0.633823    84A      0.670590    85A      0.671761  
      86A      0.697104    87A      0.705486    88A      0.752766  
      89A      0.766411    90A      0.771566    91A      0.794637  
      92A      0.820735    93A      0.833955    94A      0.834576  
      95A      0.862065    96A      0.869177    97A      0.878724  
      98A      0.916645    99A      0.943380   100A      0.962580  
     101A      0.972629   102A      0.998656   103A      1.025904  
     104A      1.034594   105A      1.058541   106A      1.095074  
     107A      1.113718   108A      1.128749   109A      1.131599  
     110A      1.158783   111A      1.170039   112A      1.195877  
     113A      1.209510   114A      1.234897   115A      1.255196  
     116A      1.267905   117A      1.293709   118A      1.324528  
     119A      1.355890   120A      1.401184   121A      1.412971  
     122A      1.467507   123A      1.488825   124A      1.494703  
     125A      1.517763   126A      1.529672   127A      1.549418  
     128A      1.570600   129A      1.578138   130A      1.591124  
     131A      1.598860   132A      1.607222   133A      1.622764  
     134A      1.637555   135A      1.649309   136A      1.664557  
     137A      1.695001   138A      1.698312   139A      1.712922  
     140A      1.758633   141A      1.783113   142A      1.789422  
     143A      1.803848   144A      1.845400   145A      1.868215  
     146A      1.886159   147A      1.898927   148A      1.916548  
     149A      1.942575   150A      1.961675   151A      1.983609  
     152A      2.004920   153A      2.032689   154A      2.043142  
     155A      2.063995   156A      2.088200   157A      2.112929  
     158A      2.141466   159A      2.153944   160A      2.188904  
     161A      2.210650   162A      2.218158   163A      2.265452  
     164A      2.296140   165A      2.306657   166A      2.324261  
     167A      2.356887   168A      2.371793   169A      2.403479  
     170A      2.411225   171A      2.430685   172A      2.436321  
     173A      2.460093   174A      2.475876   175A      2.510647  
     176A      2.518368   177A      2.537663   178A      2.543343  
     179A      2.560284   180A      2.573530   181A      2.583234  
     182A      2.599433   183A      2.613107   184A      2.617730  
     185A      2.637161   186A      2.647446   187A      2.656476  
     188A      2.677768   189A      2.691758   190A      2.709505  
     191A      2.736329   192A      2.751615   193A      2.762003  
     194A      2.775461   195A      2.801219   196A      2.809121  
     197A      2.825409   198A      2.873519   199A      2.879359  
     200A      2.891740   201A      2.951288   202A      2.957531  
     203A      3.008830   204A      3.014995   205A      3.059230  
     206A      3.082614   207A      3.106675   208A      3.116796  
     209A      3.140041   210A      3.149543   211A      3.172834  
     212A      3.184066   213A      3.197483   214A      3.207364  
     215A      3.212050   216A      3.237460   217A      3.258128  
     218A      3.287567   219A      3.297887   220A      3.325588  
     221A      3.335316   222A      3.354525   223A      3.371533  
     224A      3.389742   225A      3.409815   226A      3.425311  
     227A      3.450241   228A      3.476657   229A      3.486000  
     230A      3.493220   231A      3.510064   232A      3.521697  
     233A      3.534452   234A      3.546751   235A      3.569179  
     236A      3.612858   237A      3.633643   238A      3.659948  
     239A      3.691980   240A      3.707808   241A      3.749979  
     242A      3.776292   243A      3.797819   244A      3.828000  
     245A      3.836252   246A      3.889515   247A      3.907540  
     248A      3.960431   249A      3.987527   250A      4.018089  
     251A      4.037628   252A      4.042388   253A      4.068565  
     254A      4.097188   255A      4.137754   256A      4.172867  
     257A      4.190318   258A      4.223027   259A      4.239625  
     260A      4.290387   261A      4.334399   262A      4.347179  
     263A      4.359155   264A      4.405149   265A      4.439852  
     266A      4.480246   267A      4.511009   268A      4.518552  
     269A      4.609772   270A      4.645532   271A      4.676523  
     272A      4.707958   273A      4.738880   274A      4.842089  
     275A      4.857810   276A      4.917974   277A      4.935630  
     278A      4.968242   279A      5.053034   280A      5.102810  
     281A      5.162163   282A      5.233731   283A      5.297679  
     284A      5.316691   285A      5.412327   286A      5.563435  
     287A      5.612022   288A      5.897751   289A     22.330659  
     290A     22.388623   291A     22.464922   292A     22.483092  
     293A     22.492997   294A     22.659011   295A     32.401088  

    Final Occupation by Irrep:
              A 
    DOCC [    28 ]
    NA   [    28 ]
    NB   [    28 ]

  @DF-RKS Final Energy:  -291.36290670886103

   => Energetics <=

    Nuclear Repulsion Energy =            331.8104833010237371
    One-Electron Energy =               -1049.3090733703511432
    Two-Electron Energy =                 462.1503398708806571
    DFT Exchange-Correlation Energy =     -35.9846682808868010
    Empirical Dispersion Energy =          -0.0299882295274916
    VV10 Nonlocal Energy =                  0.0000000000000000
    Total Energy =                       -291.3629067088610327

Computation Completed


Properties will be evaluated at   0.000000,   0.000000,   0.000000 [a0]

Properties computed using the SCF density matrix


 Multipole Moments:

 ------------------------------------------------------------------------------------
     Multipole            Electronic (a.u.)      Nuclear  (a.u.)        Total (a.u.)
 ------------------------------------------------------------------------------------

 L = 1.  Multiply by 2.5417464519 to convert [e a0] to [Debye]
 Dipole X            :          9.1121174           -8.8019804            0.3101370
 Dipole Y            :          1.4573232           -1.6492538           -0.1919307
 Dipole Z            :          2.0110039           -1.8183226            0.1926813
 Magnitude           :                                                    0.4124905

 ------------------------------------------------------------------------------------

*** tstop() called on choehoyun-ui-MacBookAir.local at Sun Aug  9 01:30:08 2026
Module time:
	user time   =      65.30 seconds =       1.09 minutes
	system time =      15.87 seconds =       0.26 minutes
	total time  =        174 seconds =       2.90 minutes
Total time:
	user time   =      65.30 seconds =       1.09 minutes
	system time =      15.87 seconds =       0.26 minutes
	total time  =        174 seconds =       2.90 minutes

    Psi4 stopped on: Sunday, 09 August 2026 01:30AM
    Psi4 wall time for execution: 0:02:54.42

*** Psi4 exiting successfully. Buy a developer a beer!
