
    -----------------------------------------------------------------------
          Psi4: An Open-Source Ab Initio Electronic Structure Package
                               Psi4 1.11 release

                         Git: Rev {} zzzzzzz 


    D. G. A. Smith, L. A. Burns, A. C. Simmonett, R. M. Parrish,
    M. C. Schieber, R. Galvelis, P. Kraus, H. Kruse, R. Di Remigio,
    A. Alenaizan, A. M. James, S. Lehtola, J. P. Misiewicz, M. Scheurer,
    R. A. Shaw, J. B. Schriber, Y. Xie, Z. L. Glick, D. A. Sirianni,
    J. S. O'Brien, J. M. Waldrop, A. Kumar, E. G. Hohenstein,
    B. P. Pritchard, B. R. Brooks, H. F. Schaefer III, A. Yu. Sokolov,
    K. Patkowski, A. E. DePrince III, U. Bozkaya, R. A. King,
    F. A. Evangelista, J. M. Turney, T. D. Crawford, C. D. Sherrill,
    J. Chem. Phys. 152(18) 184108 (2020). https://doi.org/10.1063/5.0006002

                            Additional Code Authors
    E. T. Seidl, C. L. Janssen, E. F. Valeev, M. L. Leininger,
    J. F. Gonthier, R. M. Richard, H. R. McAlexander, M. Saitow, X. Wang,
    P. Verma, M. H. Lechner, A. Jiang, S. Behnle, A. G. Heide,
    M. F. Herbst, D. L. Poole, T. Győri, E. C. Mitchell, J. P. Pederson,
    and A. M. Wallace

             Previous Authors, Complete List of Code Contributors,
                       and Citations for Specific Modules
    https://github.com/psi4/psi4/blob/master/codemeta.json
    https://github.com/psi4/psi4/graphs/contributors
    https://psicode.org/psi4manual/master/introduction.html#citing-psifour

    -----------------------------------------------------------------------


    Psi4 started on: Sunday, 09 August 2026 12:53PM

    Process ID: 58684
    Host:       choehoyun-ui-MacBookAir.local
    PSIDATADIR: /Users/hoyoun/micromamba/envs/psi4env/share/psi4
    Memory:     500.0 MiB
    Threads:    8
    Addons:     a̶d̶c̶c̶, a̶m̶b̶i̶t̶, b̶s̶e̶, c̶c̶t̶3̶, c̶f̶o̶u̶r̶, c̶h̶e̶m̶p̶s̶2̶, c̶p̶p̶e̶, d̶d̶x̶, dftd3,
                d̶f̶t̶d̶4̶, dkh, ecpint, einsums, f̶o̶r̶t̶e̶, gauxc, g̶c̶p̶, g̶d̶m̶a̶,
                g̶e̶o̶m̶e̶t̶r̶i̶c̶, g̶p̶u̶_̶d̶f̶c̶c̶, i̶n̶t̶e̶g̶r̶a̶t̶o̶r̶x̶x̶, i̶p̶i̶,
                l̶i̶b̶e̶f̶p̶, m̶d̶i̶, m̶p̶2̶d̶, m̶r̶c̶c̶, ooo, o̶p̶e̶n̶f̶e̶r̶m̶i̶o̶n̶p̶s̶i̶4̶,
                pcmsolver, p̶s̶i̶4̶f̶o̶c̶k̶c̶i̶, p̶s̶i̶x̶a̶s̶, p̶y̶e̶i̶n̶s̶u̶m̶s̶, r̶e̶s̶p̶,
                s̶i̶m̶i̶n̶t̶, s̶n̶s̶m̶p̶2̶, v̶2̶r̶d̶m̶_̶c̶a̶s̶s̶c̶f̶

  ==> Input File <==

--------------------------------------------------------------------------
memory 3 GB
molecule mol {
0 1
N -0.45451519158835 0.21870191368279 0.00000000000000
N 0.37232333572440 0.19757914029026 1.17353962700142
N 0.37232333572440 0.19757914029026 -1.17353962700142
H 0.50266116275240 -0.75195481574973 -1.53082179975402
H -0.11089377137345 0.74253902046661 -1.88459919713830
H 0.50266116275240 -0.75195481574973 1.53082179975402
H -0.11089377137345 0.74253902046661 1.88459919713830
H -1.07366626261835 -0.59502860369710 0.00000000000000
units angstrom
no_reorient
no_com
}
set basis def2-TZVP
set scf_type df
set freeze_core true
set e_convergence 8
energy('b3lyp-d3bj')
--------------------------------------------------------------------------

  Memory set to   2.794 GiB by Python driver.

Scratch directory: /Users/hoyoun/Documents/Yonsei_AX_Camp/(진짜_이게_최종)/calibration/dft_work/_scratch/N3H5_3/
   => Libint2 <=

    Primary   basis highest AM E, G, H:  7, 6, 3
    Auxiliary basis highest AM E, G, H:  7, 7, 4
    Onebody   basis highest AM E, G, H:  -, -, -
    Solid Harmonics ordering:            Gaussian

*** tstart() called on choehoyun-ui-MacBookAir.local
*** at Sun Aug  9 12:53:00 2026

   => Loading Basis Set <=

    Name: DEF2-TZVP
    Role: ORBITAL
    Keyword: BASIS
    atoms 1-3 entry N          line   156 file /Users/hoyoun/micromamba/envs/psi4env/share/psi4/basis/def2-tzvp.gbs 
    atoms 4-8 entry H          line    15 file /Users/hoyoun/micromamba/envs/psi4env/share/psi4/basis/def2-tzvp.gbs 

   => B3LYP-D3(BJ): Empirical Dispersion <=

    Grimme's -D3 (BJ-damping) Dispersion Correction
    Grimme S.; Ehrlich S.; Goerigk L. (2011), J. Comput. Chem., 32: 1456

        s6 =       1.000000
        s8 =       1.988900
        a1 =       0.398100
        a2 =       4.421100


         ---------------------------------------------------------
                                   SCF
               by Justin Turney, Rob Parrish, Andy Simmonett
                          and Daniel G. A. Smith
                              RKS Reference
                        8 Threads,   2861 MiB Core
         ---------------------------------------------------------

  ==> Geometry <==

    Molecular point group: cs
    Full point group: Cs

    Geometry (in Angstrom), charge = 0, multiplicity = 1:

       Center              X                  Y                   Z               Mass       
    ------------   -----------------  -----------------  -----------------  -----------------
         N           -0.454515191588     0.218701913683     0.000000000000    14.003074004430
         N            0.372323335724     0.197579140290     1.173539627001    14.003074004430
         N            0.372323335724     0.197579140290    -1.173539627001    14.003074004430
         H            0.502661162752    -0.751954815750    -1.530821799754     1.007825032230
         H           -0.110893771373     0.742539020467    -1.884599197138     1.007825032230
         H            0.502661162752    -0.751954815750     1.530821799754     1.007825032230
         H           -0.110893771373     0.742539020467     1.884599197138     1.007825032230
         H           -1.073666262618    -0.595028603697     0.000000000000     1.007825032230

  Running in cs symmetry.

  Rotational constants: A =      1.31270  B =      0.30769  C =      0.28592 [cm^-1]
  Rotational constants: A =  39353.65074  B =   9224.31209  C =   8571.67748 [MHz]
  Nuclear repulsion =   83.392464250871285

  Charge       = 0
  Multiplicity = 1
  Electrons    = 26
  Nalpha       = 13
  Nbeta        = 13

  ==> Algorithm <==

  SCF Algorithm Type is DF.
  DIIS enabled.
  MOM disabled.
  Fractional occupation disabled.
  Guess Type is SAD.
  Energy threshold   = 1.00e-08
  Density threshold  = 1.00e-06
  Integral threshold = 1.00e-12

  ==> Primary Basis <==

  Basis Set: DEF2-TZVP
    Blend: DEF2-TZVP
    Number of shells: 53
    Number of basis functions: 123
    Number of Cartesian functions: 138
    Spherical Harmonics?: true
    Max angular momentum: 3

  ==> DFT Potential <==

   => LibXC <=

    Version 7.1.2
    S. Lehtola, C. Steigemann, M. J. T. Oliveira, and M. A. L. Marques,  SoftwareX 7, 1–5 (2018) (10.1016/j.softx.2017.11.002)

   => Composite Functional: B3LYP-D3BJ2B <= 

    B3LYP-d3bj2b Hyb-GGA Exchange-Correlation Functional

    P. J. Stephens, F. J. Devlin, C. F. Chabalowski, and M. J. Frisch,  J. Phys. Chem. 98, 11623 (1994) (10.1021/j100096a001)

    Deriv               =              1
    GGA                 =           TRUE
    Meta                =          FALSE

    Exchange Hybrid     =           TRUE
    MP2 Hybrid          =          FALSE

   => Exchange Functionals <=

    0.0800   Slater exchange
    0.7200         Becke 88

   => Exact (HF) Exchange <=

    0.2000               HF 

   => Correlation Functionals <=

    0.1900   Vosko, Wilk & Nusair (VWN5_RPA)
    0.8100   Lee, Yang & Parr

   => LibXC Density Thresholds  <==

    XC_HYB_GGA_XC_B3LYP:  1.00E-15 

   => Molecular Quadrature <=

    Radial Scheme          =       TREUTLER
    Pruning Scheme         =           NONE
    Nuclear Scheme         =       TREUTLER

    Blocking Scheme        =         OCTREE
    BS radius alpha        =              1
    Pruning alpha          =              1
    Radial Points          =             75
    Spherical Points       =            302
    Total Points           =         173558
    Total Blocks           =           1381
    Max Points             =            255
    Max Functions          =            122
    Weights Tolerance      =       1.00E-15

   => Loading Basis Set <=

    Name: (DEF2-TZVP AUX)
    Role: JKFIT
    Keyword: DF_BASIS_SCF
    atoms 1-3 entry N          line   258 file /Users/hoyoun/micromamba/envs/psi4env/share/psi4/basis/def2-universal-jkfit.gbs 
    atoms 4-8 entry H          line    18 file /Users/hoyoun/micromamba/envs/psi4env/share/psi4/basis/def2-universal-jkfit.gbs 

  ==> Integral Setup <==

  DFHelper Memory: AOs need 0.041 GiB; user supplied 1.567 GiB. 
  SCF_SUBTYPE=INCORE selected. In-core MEM_DF algorithm will be used.
  Using in-core AOs.

  ==> MemDFJK: Density-Fitted J/K Matrices <==

    J tasked:                   Yes
    K tasked:                   Yes
    wK tasked:                   No
    OpenMP threads:               8
    Memory [MiB]:              1604
    Algorithm:                 Core
    Schwarz Cutoff:           1E-12
    Mask sparsity (%):       0.3041
    Fitting Condition:        1E-10

   => Auxiliary Basis Set <=

  Basis Set: (DEF2-TZVP AUX)
    Blend: DEF2-UNIVERSAL-JKFIT
    Number of shells: 105
    Number of basis functions: 321
    Number of Cartesian functions: 379
    Spherical Harmonics?: true
    Max angular momentum: 4

  Cached 100.0% of DFT collocation blocks in 0.529 [GiB].

  Minimum eigenvalue in the overlap matrix is 1.4942662749E-03.
  Reciprocal condition number of the overlap matrix is 2.2160456580E-04.
    Using symmetric orthogonalization.

  ==> Pre-Iterations <==

  SCF Guess: Superposition of Atomic Densities via on-the-fly atomic UHF (no occupation information).

   -------------------------
    Irrep   Nso     Nmo    
   -------------------------
     A'        69      69 
     A"        54      54 
   -------------------------
    Total     123     123
   -------------------------

  ==> Iterations <==

                           Total Energy        Delta E     RMS |[F,P]|

   @DF-RKS iter SAD:  -166.76452974280724   -1.66765e+02   0.00000e+00 
   @DF-RKS iter   1:  -166.90268866350542   -1.38159e-01   1.04768e-02 ADIIS/DIIS
   @DF-RKS iter   2:  -166.42895048533759    4.73738e-01   1.53069e-02 ADIIS/DIIS
   @DF-RKS iter   3:  -167.26169226254939   -8.32742e-01   7.48749e-04 ADIIS/DIIS
   @DF-RKS iter   4:  -167.26321019970507   -1.51794e-03   2.72674e-04 ADIIS/DIIS
   @DF-RKS iter   5:  -167.26336390840066   -1.53709e-04   1.60480e-04 ADIIS/DIIS
   @DF-RKS iter   6:  -167.26343585235455   -7.19440e-05   2.12709e-05 DIIS
   @DF-RKS iter   7:  -167.26343734610373   -1.49375e-06   2.56406e-06 DIIS
   @DF-RKS iter   8:  -167.26343736908547   -2.29817e-08   4.40907e-07 DIIS
   @DF-RKS iter   9:  -167.26343736975977   -6.74305e-10   1.01809e-07 DIIS
  Energy and wave function converged.


  ==> Post-Iterations <==

   Electrons on quadrature grid:
      Ntotal   =   25.9999891365 ; deviation = -1.086e-05 

    Orbital Energies [Eh]
    ---------------------

    Doubly Occupied:                                                      

       1Ap   -14.355576     1App  -14.319816     2Ap   -14.319809  
       3Ap    -0.987149     2App   -0.855517     4Ap    -0.699009  
       5Ap    -0.528003     6Ap    -0.499805     3App   -0.482036  
       4App   -0.446016     5App   -0.261681     7Ap    -0.257790  
       8Ap    -0.251796  

    Virtual:                                                              

       9Ap     0.012397     6App    0.052217    10Ap     0.062306  
      11Ap     0.092218     7App    0.110220    12Ap     0.180097  
       8App    0.198709    13Ap     0.299915     9App    0.326129  
      14Ap     0.339822    15Ap     0.367411    10App    0.378884  
      16Ap     0.382900    11App    0.438312    17Ap     0.444254  
      12App    0.453265    18Ap     0.457739    19Ap     0.491568  
      13App    0.496116    20Ap     0.514391    21Ap     0.537847  
      22Ap     0.543735    14App    0.543912    15App    0.631648  
      23Ap     0.866684    16App    0.890190    24Ap     1.124972  
      25Ap     1.164219    17App    1.174174    26Ap     1.204146  
      18App    1.273309    19App    1.326272    27Ap     1.350798  
      20App    1.370218    28Ap     1.392579    21App    1.409700  
      29Ap     1.457117    22App    1.588389    30Ap     1.623636  
      31Ap     1.670176    23App    1.720130    32Ap     1.832417  
      33Ap     1.890091    24App    1.923633    34Ap     1.928694  
      25App    1.932587    35Ap     1.949239    36Ap     2.009445  
      26App    2.017926    27App    2.040619    37Ap     2.071364  
      38Ap     2.156506    28App    2.187315    29App    2.296724  
      39Ap     2.314103    30App    2.345118    40Ap     2.379642  
      41Ap     2.417287    31App    2.484146    42Ap     2.526986  
      32App    2.572635    33App    2.594701    43Ap     2.616905  
      44Ap     2.635260    45Ap     2.964596    46Ap     3.006196  
      34App    3.057594    35App    3.171763    47Ap     3.355042  
      36App    3.503026    48Ap     3.542974    37App    3.631764  
      49Ap     3.754351    38App    3.877392    50Ap     3.940166  
      39App    4.018126    51Ap     4.026084    40App    4.242930  
      52Ap     4.300815    41App    4.341475    53Ap     4.498345  
      54Ap     4.549392    55Ap     4.624350    42App    4.634881  
      43App    4.668213    56Ap     4.672676    44App    4.716314  
      57Ap     4.724595    58Ap     4.808063    45App    4.823620  
      59Ap     4.842171    60Ap     4.857646    46App    4.901596  
      47App    5.027091    61Ap     5.050105    48App    5.106965  
      62Ap     5.205365    49App    5.366984    63Ap     5.378218  
      64Ap     5.473860    50App    5.539551    51App    5.642465  
      65Ap     5.647576    52App    5.813666    66Ap     5.834627  
      53App    6.482575    67Ap     6.747107    68Ap    31.645895  
      54App   31.681696    69Ap    31.864636  

    Final Occupation by Irrep:
             Ap   App 
    DOCC [     8,    5 ]
    NA   [     8,    5 ]
    NB   [     8,    5 ]

  @DF-RKS Final Energy:  -167.26343736975977

   => Energetics <=

    Nuclear Repulsion Energy =             83.3924642508712850
    One-Electron Energy =                -391.6359444475396003
    Two-Electron Energy =                 159.2670325425938813
    DFT Exchange-Correlation Energy =     -18.2809984075112268
    Empirical Dispersion Energy =          -0.0059913081741170
    VV10 Nonlocal Energy =                  0.0000000000000000
    Total Energy =                       -167.2634373697597709

Computation Completed


Properties will be evaluated at   0.000000,   0.000000,   0.000000 [a0]

Properties computed using the SCF density matrix


 Multipole Moments:

 ------------------------------------------------------------------------------------
     Multipole            Electronic (a.u.)      Nuclear  (a.u.)        Total (a.u.)
 ------------------------------------------------------------------------------------

 L = 1.  Multiply by 2.5417464519 to convert [e a0] to [Debye]
 Dipole X            :         -3.9908761            3.2896142           -0.7012619
 Dipole Y            :         -7.8765783            6.9601659           -0.9164124
 Dipole Z            :          0.0000000            0.0000000            0.0000000
 Magnitude           :                                                    1.1539410

 ------------------------------------------------------------------------------------

*** tstop() called on choehoyun-ui-MacBookAir.local at Sun Aug  9 12:53:01 2026
Module time:
	user time   =       5.91 seconds =       0.10 minutes
	system time =       0.19 seconds =       0.00 minutes
	total time  =          1 seconds =       0.02 minutes
Total time:
	user time   =       5.91 seconds =       0.10 minutes
	system time =       0.19 seconds =       0.00 minutes
	total time  =          1 seconds =       0.02 minutes

    Psi4 stopped on: Sunday, 09 August 2026 12:53PM
    Psi4 wall time for execution: 0:00:01.36

*** Psi4 exiting successfully. Buy a developer a beer!
