
    -----------------------------------------------------------------------
          Psi4: An Open-Source Ab Initio Electronic Structure Package
                               Psi4 1.11 release

                         Git: Rev {} zzzzzzz 


    D. G. A. Smith, L. A. Burns, A. C. Simmonett, R. M. Parrish,
    M. C. Schieber, R. Galvelis, P. Kraus, H. Kruse, R. Di Remigio,
    A. Alenaizan, A. M. James, S. Lehtola, J. P. Misiewicz, M. Scheurer,
    R. A. Shaw, J. B. Schriber, Y. Xie, Z. L. Glick, D. A. Sirianni,
    J. S. O'Brien, J. M. Waldrop, A. Kumar, E. G. Hohenstein,
    B. P. Pritchard, B. R. Brooks, H. F. Schaefer III, A. Yu. Sokolov,
    K. Patkowski, A. E. DePrince III, U. Bozkaya, R. A. King,
    F. A. Evangelista, J. M. Turney, T. D. Crawford, C. D. Sherrill,
    J. Chem. Phys. 152(18) 184108 (2020). https://doi.org/10.1063/5.0006002

                            Additional Code Authors
    E. T. Seidl, C. L. Janssen, E. F. Valeev, M. L. Leininger,
    J. F. Gonthier, R. M. Richard, H. R. McAlexander, M. Saitow, X. Wang,
    P. Verma, M. H. Lechner, A. Jiang, S. Behnle, A. G. Heide,
    M. F. Herbst, D. L. Poole, T. Győri, E. C. Mitchell, J. P. Pederson,
    and A. M. Wallace

             Previous Authors, Complete List of Code Contributors,
                       and Citations for Specific Modules
    https://github.com/psi4/psi4/blob/master/codemeta.json
    https://github.com/psi4/psi4/graphs/contributors
    https://psicode.org/psi4manual/master/introduction.html#citing-psifour

    -----------------------------------------------------------------------


    Psi4 started on: Monday, 10 August 2026 06:29PM

    Process ID: 74901
    Host:       choehoyun-ui-MacBookAir.local
    PSIDATADIR: /Users/hoyoun/micromamba/envs/psi4env/share/psi4
    Memory:     500.0 MiB
    Threads:    8
    Addons:     a̶d̶c̶c̶, a̶m̶b̶i̶t̶, b̶s̶e̶, c̶c̶t̶3̶, c̶f̶o̶u̶r̶, c̶h̶e̶m̶p̶s̶2̶, c̶p̶p̶e̶, d̶d̶x̶, dftd3,
                d̶f̶t̶d̶4̶, dkh, ecpint, einsums, f̶o̶r̶t̶e̶, gauxc, g̶c̶p̶, g̶d̶m̶a̶,
                g̶e̶o̶m̶e̶t̶r̶i̶c̶, g̶p̶u̶_̶d̶f̶c̶c̶, i̶n̶t̶e̶g̶r̶a̶t̶o̶r̶x̶x̶, i̶p̶i̶,
                l̶i̶b̶e̶f̶p̶, m̶d̶i̶, m̶p̶2̶d̶, m̶r̶c̶c̶, ooo, o̶p̶e̶n̶f̶e̶r̶m̶i̶o̶n̶p̶s̶i̶4̶,
                pcmsolver, p̶s̶i̶4̶f̶o̶c̶k̶c̶i̶, p̶s̶i̶x̶a̶s̶, p̶y̶e̶i̶n̶s̶u̶m̶s̶, r̶e̶s̶p̶,
                s̶i̶m̶i̶n̶t̶, s̶n̶s̶m̶p̶2̶, v̶2̶r̶d̶m̶_̶c̶a̶s̶s̶c̶f̶

  ==> Input File <==

--------------------------------------------------------------------------
memory 3 GB
molecule mol {
0 1
O 1.80918275078201 -1.48197621447135 -0.13563935827789
P 1.64426920904536 0.11003420942027 -0.02161272483975
O 2.62578325669058 0.89602809995471 -0.77013016263629
O 0.11515076350976 0.34531979730521 -0.62604242080050
P -1.28269255439692 0.12043284421071 0.12727964894185
O -1.13992217816323 0.08855443273968 1.59898889261142
O -2.22040979376594 1.24159810692799 -0.50834786910934
O -1.92869822835791 -1.20324696413969 -0.45237671406403
O 1.48219357824755 0.38322651438397 1.51502245204019
H 2.40822243107163 -1.70928391944059 -0.86653886212281
H -1.95592211278943 2.14725260954252 -0.27254573092570
H -2.09204152865711 -1.18205214648791 -1.41071738663995
H 0.53488440678362 0.24411263005446 1.82266023582277
units angstrom
no_reorient
no_com
}
set basis def2-SVP
set scf_type df
set freeze_core true
set e_convergence 8
energy('b3lyp-d3bj')
--------------------------------------------------------------------------

  Memory set to   2.794 GiB by Python driver.

Scratch directory: /Users/hoyoun/Documents/Yonsei_AX_Camp/(진짜_이게_최종)/calibration/dft_work/_scratch/H4P2O7_4/
   => Libint2 <=

    Primary   basis highest AM E, G, H:  7, 6, 3
    Auxiliary basis highest AM E, G, H:  7, 7, 4
    Onebody   basis highest AM E, G, H:  -, -, -
    Solid Harmonics ordering:            Gaussian

*** tstart() called on choehoyun-ui-MacBookAir.local
*** at Mon Aug 10 18:29:48 2026

   => Loading Basis Set <=

    Name: DEF2-SVP
    Role: ORBITAL
    Keyword: BASIS
    atoms 1, 3-4, 6-9 entry O          line   130 file /Users/hoyoun/micromamba/envs/psi4env/share/psi4/basis/def2-svp.gbs 
    atoms 2, 5        entry P          line   300 file /Users/hoyoun/micromamba/envs/psi4env/share/psi4/basis/def2-svp.gbs 
    atoms 10-13       entry H          line    15 file /Users/hoyoun/micromamba/envs/psi4env/share/psi4/basis/def2-svp.gbs 

   => B3LYP-D3(BJ): Empirical Dispersion <=

    Grimme's -D3 (BJ-damping) Dispersion Correction
    Grimme S.; Ehrlich S.; Goerigk L. (2011), J. Comput. Chem., 32: 1456

        s6 =       1.000000
        s8 =       1.988900
        a1 =       0.398100
        a2 =       4.421100


         ---------------------------------------------------------
                                   SCF
               by Justin Turney, Rob Parrish, Andy Simmonett
                          and Daniel G. A. Smith
                              RKS Reference
                        8 Threads,   2861 MiB Core
         ---------------------------------------------------------

  ==> Geometry <==

    Molecular point group: c1
    Full point group: C1

    Geometry (in Angstrom), charge = 0, multiplicity = 1:

       Center              X                  Y                   Z               Mass       
    ------------   -----------------  -----------------  -----------------  -----------------
         O            1.809182750782    -1.481976214471    -0.135639358278    15.994914619570
         P            1.644269209045     0.110034209420    -0.021612724840    30.973761998420
         O            2.625783256691     0.896028099955    -0.770130162636    15.994914619570
         O            0.115150763510     0.345319797305    -0.626042420800    15.994914619570
         P           -1.282692554397     0.120432844211     0.127279648942    30.973761998420
         O           -1.139922178163     0.088554432740     1.598988892611    15.994914619570
         O           -2.220409793766     1.241598106928    -0.508347869109    15.994914619570
         O           -1.928698228358    -1.203246964140    -0.452376714064    15.994914619570
         O            1.482193578248     0.383226514384     1.515022452040    15.994914619570
         H            2.408222431072    -1.709283919441    -0.866538862123     1.007825032230
         H           -1.955922112789     2.147252609543    -0.272545730926     1.007825032230
         H           -2.092041528657    -1.182052146488    -1.410717386640     1.007825032230
         H            0.534884406784     0.244112630054     1.822660235823     1.007825032230

  Running in c1 symmetry.

  Rotational constants: A =      0.07747  B =      0.02751  C =      0.02729 [cm^-1]
  Rotational constants: A =   2322.56849  B =    824.75946  C =    818.11034 [MHz]
  Nuclear repulsion =  776.595266179701980

  Charge       = 0
  Multiplicity = 1
  Electrons    = 90
  Nalpha       = 45
  Nbeta        = 45

  ==> Algorithm <==

  SCF Algorithm Type is DF.
  DIIS enabled.
  MOM disabled.
  Fractional occupation disabled.
  Guess Type is SAD.
  Energy threshold   = 1.00e-08
  Density threshold  = 1.00e-06
  Integral threshold = 1.00e-12

  ==> Primary Basis <==

  Basis Set: DEF2-SVP
    Blend: DEF2-SVP
    Number of shells: 70
    Number of basis functions: 154
    Number of Cartesian functions: 163
    Spherical Harmonics?: true
    Max angular momentum: 2

  ==> DFT Potential <==

   => LibXC <=

    Version 7.1.2
    S. Lehtola, C. Steigemann, M. J. T. Oliveira, and M. A. L. Marques,  SoftwareX 7, 1–5 (2018) (10.1016/j.softx.2017.11.002)

   => Composite Functional: B3LYP-D3BJ2B <= 

    B3LYP-d3bj2b Hyb-GGA Exchange-Correlation Functional

    P. J. Stephens, F. J. Devlin, C. F. Chabalowski, and M. J. Frisch,  J. Phys. Chem. 98, 11623 (1994) (10.1021/j100096a001)

    Deriv               =              1
    GGA                 =           TRUE
    Meta                =          FALSE

    Exchange Hybrid     =           TRUE
    MP2 Hybrid          =          FALSE

   => Exchange Functionals <=

    0.0800   Slater exchange
    0.7200         Becke 88

   => Exact (HF) Exchange <=

    0.2000               HF 

   => Correlation Functionals <=

    0.1900   Vosko, Wilk & Nusair (VWN5_RPA)
    0.8100   Lee, Yang & Parr

   => LibXC Density Thresholds  <==

    XC_HYB_GGA_XC_B3LYP:  1.00E-15 

   => Molecular Quadrature <=

    Radial Scheme          =       TREUTLER
    Pruning Scheme         =           NONE
    Nuclear Scheme         =       TREUTLER

    Blocking Scheme        =         OCTREE
    BS radius alpha        =              1
    Pruning alpha          =              1
    Radial Points          =             75
    Spherical Points       =            302
    Total Points           =         274682
    Total Blocks           =           2111
    Max Points             =            256
    Max Functions          =            147
    Weights Tolerance      =       1.00E-15

   => Loading Basis Set <=

    Name: (DEF2-SVP AUX)
    Role: JKFIT
    Keyword: DF_BASIS_SCF
    atoms 1, 3-4, 6-9 entry O          line   318 file /Users/hoyoun/micromamba/envs/psi4env/share/psi4/basis/def2-universal-jkfit.gbs 
    atoms 2, 5        entry P          line   820 file /Users/hoyoun/micromamba/envs/psi4env/share/psi4/basis/def2-universal-jkfit.gbs 
    atoms 10-13       entry H          line    18 file /Users/hoyoun/micromamba/envs/psi4env/share/psi4/basis/def2-universal-jkfit.gbs 

  ==> Integral Setup <==

  DFHelper Memory: AOs need 0.149 GiB; user supplied 1.310 GiB. 
  SCF_SUBTYPE=INCORE selected. In-core MEM_DF algorithm will be used.
  Using in-core AOs.

  ==> MemDFJK: Density-Fitted J/K Matrices <==

    J tasked:                   Yes
    K tasked:                   Yes
    wK tasked:                   No
    OpenMP threads:               8
    Memory [MiB]:              1341
    Algorithm:                 Core
    Schwarz Cutoff:           1E-12
    Mask sparsity (%):      10.1366
    Fitting Condition:        1E-10

   => Auxiliary Basis Set <=

  Basis Set: (DEF2-SVP AUX)
    Blend: DEF2-UNIVERSAL-JKFIT
    Number of shells: 275
    Number of basis functions: 867
    Number of Cartesian functions: 1041
    Spherical Harmonics?: true
    Max angular momentum: 4

  Cached 100.0% of DFT collocation blocks in 0.786 [GiB].

  Minimum eigenvalue in the overlap matrix is 7.6546300549E-03.
  Reciprocal condition number of the overlap matrix is 1.6356714807E-03.
    Using symmetric orthogonalization.

  ==> Pre-Iterations <==

  SCF Guess: Superposition of Atomic Densities via on-the-fly atomic UHF (no occupation information).

   -------------------------
    Irrep   Nso     Nmo    
   -------------------------
     A        154     154 
   -------------------------
    Total     154     154
   -------------------------

  ==> Iterations <==

                           Total Energy        Delta E     RMS |[F,P]|

   @DF-RKS iter SAD: -1211.25165214088474   -1.21125e+03   0.00000e+00 
   @DF-RKS iter   1: -1210.54553559895862    7.06117e-01   9.34505e-03 ADIIS/DIIS
   @DF-RKS iter   2: -1209.38060949720580    1.16493e+00   1.45423e-02 ADIIS/DIIS
   @DF-RKS iter   3: -1211.24092783626793   -1.86032e+00   2.50338e-03 ADIIS/DIIS
   @DF-RKS iter   4: -1211.29510986429432   -5.41820e-02   6.94329e-04 ADIIS/DIIS
   @DF-RKS iter   5: -1211.29901088441488   -3.90102e-03   1.40177e-04 ADIIS/DIIS
   @DF-RKS iter   6: -1211.29921169738623   -2.00813e-04   2.68481e-05 DIIS
   @DF-RKS iter   7: -1211.29921658267176   -4.88529e-06   1.46414e-05 DIIS
   @DF-RKS iter   8: -1211.29921841669398   -1.83402e-06   1.48590e-06 DIIS
   @DF-RKS iter   9: -1211.29921843267834   -1.59844e-08   7.24092e-07 DIIS
   @DF-RKS iter  10: -1211.29921843684588   -4.16753e-09   2.37721e-07 DIIS
  Energy and wave function converged.


  ==> Post-Iterations <==

   Electrons on quadrature grid:
      Ntotal   =   90.0000334767 ; deviation = 3.348e-05 

    Orbital Energies [Eh]
    ---------------------

    Doubly Occupied:                                                      

       1A    -77.261971     2A    -77.231993     3A    -19.207486  
       4A    -19.205030     5A    -19.199720     6A    -19.181422  
       7A    -19.165315     8A    -19.134162     9A    -19.098285  
      10A     -6.735675    11A     -6.706259    12A     -4.903410  
      13A     -4.902893    14A     -4.901312    15A     -4.874621  
      16A     -4.872994    17A     -4.871392    18A     -1.138018  
      19A     -1.096906    20A     -1.060964    21A     -1.044896  
      22A     -1.029303    23A     -0.996721    24A     -0.961297  
      25A     -0.697339    26A     -0.649450    27A     -0.605670  
      28A     -0.597749    29A     -0.567150    30A     -0.502246  
      31A     -0.482161    32A     -0.461044    33A     -0.454084  
      34A     -0.441512    35A     -0.423318    36A     -0.410354  
      37A     -0.395134    38A     -0.393171    39A     -0.380876  
      40A     -0.373591    41A     -0.350056    42A     -0.343943  
      43A     -0.338101    44A     -0.310911    45A     -0.304332  

    Virtual:                                                              

      46A     -0.005104    47A      0.032036    48A      0.034179  
      49A      0.081027    50A      0.091322    51A      0.106776  
      52A      0.123836    53A      0.139313    54A      0.150144  
      55A      0.174330    56A      0.196356    57A      0.218153  
      58A      0.268851    59A      0.332469    60A      0.447322  
      61A      0.469037    62A      0.477898    63A      0.487865  
      64A      0.504124    65A      0.508842    66A      0.537060  
      67A      0.556659    68A      0.569408    69A      0.594555  
      70A      0.599197    71A      0.619239    72A      0.627314  
      73A      0.700797    74A      0.810395    75A      0.820349  
      76A      0.833389    77A      0.850157    78A      0.863039  
      79A      0.877863    80A      0.907429    81A      0.914920  
      82A      0.935369    83A      0.959717    84A      0.965496  
      85A      0.975920    86A      1.010860    87A      1.017835  
      88A      1.027023    89A      1.065939    90A      1.083756  
      91A      1.093739    92A      1.131689    93A      1.136912  
      94A      1.149153    95A      1.166261    96A      1.197403  
      97A      1.206153    98A      1.238286    99A      1.259037  
     100A      1.296926   101A      1.313706   102A      1.329879  
     103A      1.373836   104A      1.389797   105A      1.419373  
     106A      1.429506   107A      1.460649   108A      1.469735  
     109A      1.505651   110A      1.552056   111A      1.570774  
     112A      1.646606   113A      1.716933   114A      1.745728  
     115A      1.874170   116A      2.131076   117A      2.135196  
     118A      2.161577   119A      2.180282   120A      2.524013  
     121A      2.529074   122A      2.544286   123A      2.601469  
     124A      2.637158   125A      2.637193   126A      2.650684  
     127A      2.672724   128A      2.697750   129A      2.720240  
     130A      2.752081   131A      2.774439   132A      2.800296  
     133A      2.821543   134A      2.835007   135A      2.871906  
     136A      2.880274   137A      2.887884   138A      2.893923  
     139A      2.918111   140A      2.928899   141A      2.950218  
     142A      2.988999   143A      3.010139   144A      3.034776  
     145A      3.142928   146A      3.167336   147A      3.189525  
     148A      3.217886   149A      3.361358   150A      3.404247  
     151A      3.613764   152A      3.623561   153A      3.655255  
     154A      3.675869  

    Final Occupation by Irrep:
              A 
    DOCC [    45 ]
    NA   [    45 ]
    NB   [    45 ]

  @DF-RKS Final Energy: -1211.29921843684588

   => Energetics <=

    Nuclear Repulsion Energy =            776.5952661797019800
    One-Electron Energy =               -3216.5431091297232342
    Two-Electron Energy =                1316.3255476162869400
    DFT Exchange-Correlation Energy =     -87.6520108335205066
    Empirical Dispersion Energy =          -0.0249122695909451
    VV10 Nonlocal Energy =                  0.0000000000000000
    Total Energy =                      -1211.2992184368458766

Computation Completed


Properties will be evaluated at   0.000000,   0.000000,   0.000000 [a0]

Properties computed using the SCF density matrix


 Multipole Moments:

 ------------------------------------------------------------------------------------
     Multipole            Electronic (a.u.)      Nuclear  (a.u.)        Total (a.u.)
 ------------------------------------------------------------------------------------

 L = 1.  Multiply by 2.5417464519 to convert [e a0] to [Debye]
 Dipole X            :        -20.5503205           19.3981033           -1.1522172
 Dipole Y            :         -9.8992609            9.6622928           -0.2369681
 Dipole Z            :        -12.1858942           11.0164621           -1.1694321
 Magnitude           :                                                    1.6587133

 ------------------------------------------------------------------------------------

*** tstop() called on choehoyun-ui-MacBookAir.local at Mon Aug 10 18:29:52 2026
Module time:
	user time   =      19.06 seconds =       0.32 minutes
	system time =       0.61 seconds =       0.01 minutes
	total time  =          4 seconds =       0.07 minutes
Total time:
	user time   =      19.06 seconds =       0.32 minutes
	system time =       0.61 seconds =       0.01 minutes
	total time  =          4 seconds =       0.07 minutes

    Psi4 stopped on: Monday, 10 August 2026 06:29PM
    Psi4 wall time for execution: 0:00:04.08

*** Psi4 exiting successfully. Buy a developer a beer!
