
    -----------------------------------------------------------------------
          Psi4: An Open-Source Ab Initio Electronic Structure Package
                               Psi4 1.11 release

                         Git: Rev {} zzzzzzz 


    D. G. A. Smith, L. A. Burns, A. C. Simmonett, R. M. Parrish,
    M. C. Schieber, R. Galvelis, P. Kraus, H. Kruse, R. Di Remigio,
    A. Alenaizan, A. M. James, S. Lehtola, J. P. Misiewicz, M. Scheurer,
    R. A. Shaw, J. B. Schriber, Y. Xie, Z. L. Glick, D. A. Sirianni,
    J. S. O'Brien, J. M. Waldrop, A. Kumar, E. G. Hohenstein,
    B. P. Pritchard, B. R. Brooks, H. F. Schaefer III, A. Yu. Sokolov,
    K. Patkowski, A. E. DePrince III, U. Bozkaya, R. A. King,
    F. A. Evangelista, J. M. Turney, T. D. Crawford, C. D. Sherrill,
    J. Chem. Phys. 152(18) 184108 (2020). https://doi.org/10.1063/5.0006002

                            Additional Code Authors
    E. T. Seidl, C. L. Janssen, E. F. Valeev, M. L. Leininger,
    J. F. Gonthier, R. M. Richard, H. R. McAlexander, M. Saitow, X. Wang,
    P. Verma, M. H. Lechner, A. Jiang, S. Behnle, A. G. Heide,
    M. F. Herbst, D. L. Poole, T. Győri, E. C. Mitchell, J. P. Pederson,
    and A. M. Wallace

             Previous Authors, Complete List of Code Contributors,
                       and Citations for Specific Modules
    https://github.com/psi4/psi4/blob/master/codemeta.json
    https://github.com/psi4/psi4/graphs/contributors
    https://psicode.org/psi4manual/master/introduction.html#citing-psifour

    -----------------------------------------------------------------------


    Psi4 started on: Monday, 10 August 2026 07:19PM

    Process ID: 78219
    Host:       choehoyun-ui-MacBookAir.local
    PSIDATADIR: /Users/hoyoun/micromamba/envs/psi4env/share/psi4
    Memory:     500.0 MiB
    Threads:    8
    Addons:     a̶d̶c̶c̶, a̶m̶b̶i̶t̶, b̶s̶e̶, c̶c̶t̶3̶, c̶f̶o̶u̶r̶, c̶h̶e̶m̶p̶s̶2̶, c̶p̶p̶e̶, d̶d̶x̶, dftd3,
                d̶f̶t̶d̶4̶, dkh, ecpint, einsums, f̶o̶r̶t̶e̶, gauxc, g̶c̶p̶, g̶d̶m̶a̶,
                g̶e̶o̶m̶e̶t̶r̶i̶c̶, g̶p̶u̶_̶d̶f̶c̶c̶, i̶n̶t̶e̶g̶r̶a̶t̶o̶r̶x̶x̶, i̶p̶i̶,
                l̶i̶b̶e̶f̶p̶, m̶d̶i̶, m̶p̶2̶d̶, m̶r̶c̶c̶, ooo, o̶p̶e̶n̶f̶e̶r̶m̶i̶o̶n̶p̶s̶i̶4̶,
                pcmsolver, p̶s̶i̶4̶f̶o̶c̶k̶c̶i̶, p̶s̶i̶x̶a̶s̶, p̶y̶e̶i̶n̶s̶u̶m̶s̶, r̶e̶s̶p̶,
                s̶i̶m̶i̶n̶t̶, s̶n̶s̶m̶p̶2̶, v̶2̶r̶d̶m̶_̶c̶a̶s̶s̶c̶f̶

  ==> Input File <==

--------------------------------------------------------------------------
memory 3 GB
molecule mol {
0 1
C -3.97584986287201 -1.77408628152790 -0.62852711670009
C -3.87373946072861 -0.70893793366425 0.30607345492900
C -2.69699677528024 0.03451695898539 0.40147962208663
C -1.62865129193386 -0.29608540986124 -0.43719378090248
C -1.72109579465707 -1.33431949504163 -1.35953949551272
C -2.89932335972555 -2.08164951048277 -1.46040218606802
C -0.44644106390376 -1.48021290341651 -2.15087340876526
C 0.59314712781490 -0.58255237731816 -1.41828729959546
C -0.27708649938610 0.41948520002321 -0.50035171448601
C 0.33430369212468 0.54926481678346 0.86944312107680
C 0.62677687091797 1.75492449980767 1.39545221907650
C 0.33717168114670 3.03433368905205 0.72001768868314
C -0.18384158671166 2.93013609717080 -0.67863345435329
C -0.45267226493179 1.72199679881196 -1.21833888058425
N 1.52377845682025 -1.36235410553313 -0.60260131249284
C 0.92292118740675 -1.89572161516486 0.62585276116414
C 0.59802113238620 -0.74165627550049 1.60937909623103
O 0.50324178014475 4.11357269558226 1.29385790614074
O -0.50788997340760 4.05778379459828 -1.38559760393431
C 0.54404641671216 5.03746813493326 -1.55725733052691
C 2.87547481444015 -1.09724646750610 -0.71711557430364
O 3.57482188781123 -1.65888632681788 0.31697120093807
C 5.02038731307920 -1.50780666890177 0.24394516426292
C 5.60493689826035 -2.17309771494376 1.47808956391884
O -5.00794842551528 -0.51313044993852 1.06284755949946
C -4.99892006034565 0.57300023133304 1.99660590656715
O -5.12368726980007 -2.51338879637216 -0.72477959847580
O 3.39438775898765 -0.47684310561556 -1.63070817695246
H -5.76327534155919 -2.15790520197893 -0.08693492180023
H 1.06633999333784 1.84145118577699 2.38921438260979
H -0.87060643318696 1.67242707922477 -2.22300810840637
H 0.13027605063139 5.78927154175940 -2.23644522557612
H 0.81776657241519 5.49298572106668 -0.60061466208885
H 1.42558363308261 4.56846767210586 -2.02073017683485
H -0.29240989338886 -1.01708228846342 2.19411267004672
H 1.42485532853465 -0.59095018869782 2.31322573578832
H 1.59357433966699 -2.62392157273718 1.08170118075436
H 0.00107355192893 -2.40855213071044 0.33334721590378
H 1.19164916096367 -0.00535149051989 -2.12229326404623
H -0.57935025498185 -1.12855780789315 -3.18395528006904
H -0.08782027994020 -2.51591666764156 -2.20653264590550
H -2.60346041466418 0.85673695670354 1.10537728132010
H -3.00288038557756 -2.90112238400993 -2.16836635828369
H -4.21298961312417 0.42983323614441 2.75326037139078
H -5.98237090752993 0.56641635419385 2.47389000368292
H -4.83632335933277 1.52988041849387 1.47912839518860
H 5.26229959352258 -0.43882539773225 0.20100200019809
H 5.37853900467169 -1.97467980847033 -0.68209200302303
H 5.23292774138812 -1.69553752912577 2.39290990125835
H 6.69838519084871 -2.07824657290063 1.45690014882317
H 5.34894339343960 -3.23932860406287 1.50709502814807
units angstrom
no_reorient
no_com
}
set basis def2-SVP
set scf_type disk_df
set freeze_core true
set e_convergence 8
energy('b3lyp-d3bj')
--------------------------------------------------------------------------

  Memory set to   2.794 GiB by Python driver.

Scratch directory: /Users/hoyoun/Documents/Yonsei_AX_Camp/(진짜_이게_최종)/calibration/dft_work/_scratch/i16p/
   => Libint2 <=

    Primary   basis highest AM E, G, H:  7, 6, 3
    Auxiliary basis highest AM E, G, H:  7, 7, 4
    Onebody   basis highest AM E, G, H:  -, -, -
    Solid Harmonics ordering:            Gaussian

*** tstart() called on choehoyun-ui-MacBookAir.local
*** at Mon Aug 10 19:19:32 2026

   => Loading Basis Set <=

    Name: DEF2-SVP
    Role: ORBITAL
    Keyword: BASIS
    atoms 1-14, 16-17, 20-21, 23-24, 26 entry C          line    90 file /Users/hoyoun/micromamba/envs/psi4env/share/psi4/basis/def2-svp.gbs 
    atoms 15                            entry N          line   110 file /Users/hoyoun/micromamba/envs/psi4env/share/psi4/basis/def2-svp.gbs 
    atoms 18-19, 22, 25, 27-28          entry O          line   130 file /Users/hoyoun/micromamba/envs/psi4env/share/psi4/basis/def2-svp.gbs 
    atoms 29-51                         entry H          line    15 file /Users/hoyoun/micromamba/envs/psi4env/share/psi4/basis/def2-svp.gbs 

   => B3LYP-D3(BJ): Empirical Dispersion <=

    Grimme's -D3 (BJ-damping) Dispersion Correction
    Grimme S.; Ehrlich S.; Goerigk L. (2011), J. Comput. Chem., 32: 1456

        s6 =       1.000000
        s8 =       1.988900
        a1 =       0.398100
        a2 =       4.421100


         ---------------------------------------------------------
                                   SCF
               by Justin Turney, Rob Parrish, Andy Simmonett
                          and Daniel G. A. Smith
                              RKS Reference
                        8 Threads,   2861 MiB Core
         ---------------------------------------------------------

  ==> Geometry <==

    Molecular point group: c1
    Full point group: C1

    Geometry (in Angstrom), charge = 0, multiplicity = 1:

       Center              X                  Y                   Z               Mass       
    ------------   -----------------  -----------------  -----------------  -----------------
         C           -3.975849862872    -1.774086281528    -0.628527116700    12.000000000000
         C           -3.873739460729    -0.708937933664     0.306073454929    12.000000000000
         C           -2.696996775280     0.034516958985     0.401479622087    12.000000000000
         C           -1.628651291934    -0.296085409861    -0.437193780902    12.000000000000
         C           -1.721095794657    -1.334319495042    -1.359539495513    12.000000000000
         C           -2.899323359726    -2.081649510483    -1.460402186068    12.000000000000
         C           -0.446441063904    -1.480212903417    -2.150873408765    12.000000000000
         C            0.593147127815    -0.582552377318    -1.418287299595    12.000000000000
         C           -0.277086499386     0.419485200023    -0.500351714486    12.000000000000
         C            0.334303692125     0.549264816783     0.869443121077    12.000000000000
         C            0.626776870918     1.754924499808     1.395452219076    12.000000000000
         C            0.337171681147     3.034333689052     0.720017688683    12.000000000000
         C           -0.183841586712     2.930136097171    -0.678633454353    12.000000000000
         C           -0.452672264932     1.721996798812    -1.218338880584    12.000000000000
         N            1.523778456820    -1.362354105533    -0.602601312493    14.003074004430
         C            0.922921187407    -1.895721615165     0.625852761164    12.000000000000
         C            0.598021132386    -0.741656275500     1.609379096231    12.000000000000
         O            0.503241780145     4.113572695582     1.293857906141    15.994914619570
         O           -0.507889973408     4.057783794598    -1.385597603934    15.994914619570
         C            0.544046416712     5.037468134933    -1.557257330527    12.000000000000
         C            2.875474814440    -1.097246467506    -0.717115574304    12.000000000000
         O            3.574821887811    -1.658886326818     0.316971200938    15.994914619570
         C            5.020387313079    -1.507806668902     0.243945164263    12.000000000000
         C            5.604936898260    -2.173097714944     1.478089563919    12.000000000000
         O           -5.007948425515    -0.513130449939     1.062847559499    15.994914619570
         C           -4.998920060346     0.573000231333     1.996605906567    12.000000000000
         O           -5.123687269800    -2.513388796372    -0.724779598476    15.994914619570
         O            3.394387758988    -0.476843105616    -1.630708176952    15.994914619570
         H           -5.763275341559    -2.157905201979    -0.086934921800     1.007825032230
         H            1.066339993338     1.841451185777     2.389214382610     1.007825032230
         H           -0.870606433187     1.672427079225    -2.223008108406     1.007825032230
         H            0.130276050631     5.789271541759    -2.236445225576     1.007825032230
         H            0.817766572415     5.492985721067    -0.600614662089     1.007825032230
         H            1.425583633083     4.568467672106    -2.020730176835     1.007825032230
         H           -0.292409893389    -1.017082288463     2.194112670047     1.007825032230
         H            1.424855328535    -0.590950188698     2.313225735788     1.007825032230
         H            1.593574339667    -2.623921572737     1.081701180754     1.007825032230
         H            0.001073551929    -2.408552130710     0.333347215904     1.007825032230
         H            1.191649160964    -0.005351490520    -2.122293264046     1.007825032230
         H           -0.579350254982    -1.128557807893    -3.183955280069     1.007825032230
         H           -0.087820279940    -2.515916667642    -2.206532645905     1.007825032230
         H           -2.603460414664     0.856736956704     1.105377281320     1.007825032230
         H           -3.002880385578    -2.901122384010    -2.168366358284     1.007825032230
         H           -4.212989613124     0.429833236144     2.753260371391     1.007825032230
         H           -5.982370907530     0.566416354194     2.473890003683     1.007825032230
         H           -4.836323359333     1.529880418494     1.479128395189     1.007825032230
         H            5.262299593523    -0.438825397732     0.201002000198     1.007825032230
         H            5.378539004672    -1.974679808470    -0.682092003023     1.007825032230
         H            5.232927741388    -1.695537529126     2.392909901258     1.007825032230
         H            6.698385190849    -2.078246572901     1.456900148823     1.007825032230
         H            5.348943393440    -3.239328604063     1.507095028148     1.007825032230

  Running in c1 symmetry.

  Rotational constants: A =      0.00724  B =      0.00438  C =      0.00334 [cm^-1]
  Rotational constants: A =    217.13384  B =    131.17897  C =    100.09741 [MHz]
  Nuclear repulsion = 2734.127988952246142

  Charge       = 0
  Multiplicity = 1
  Electrons    = 204
  Nalpha       = 102
  Nbeta        = 102

  ==> Algorithm <==

  SCF Algorithm Type is DISK_DF.
  DIIS enabled.
  MOM disabled.
  Fractional occupation disabled.
  Guess Type is SAD.
  Energy threshold   = 1.00e-08
  Density threshold  = 1.00e-06
  Integral threshold = 1.00e-12

  ==> Primary Basis <==

  Basis Set: DEF2-SVP
    Blend: DEF2-SVP
    Number of shells: 237
    Number of basis functions: 507
    Number of Cartesian functions: 535
    Spherical Harmonics?: true
    Max angular momentum: 2

  ==> DFT Potential <==

   => LibXC <=

    Version 7.1.2
    S. Lehtola, C. Steigemann, M. J. T. Oliveira, and M. A. L. Marques,  SoftwareX 7, 1–5 (2018) (10.1016/j.softx.2017.11.002)

   => Composite Functional: B3LYP-D3BJ2B <= 

    B3LYP-d3bj2b Hyb-GGA Exchange-Correlation Functional

    P. J. Stephens, F. J. Devlin, C. F. Chabalowski, and M. J. Frisch,  J. Phys. Chem. 98, 11623 (1994) (10.1021/j100096a001)

    Deriv               =              1
    GGA                 =           TRUE
    Meta                =          FALSE

    Exchange Hybrid     =           TRUE
    MP2 Hybrid          =          FALSE

   => Exchange Functionals <=

    0.0800   Slater exchange
    0.7200         Becke 88

   => Exact (HF) Exchange <=

    0.2000               HF 

   => Correlation Functionals <=

    0.1900   Vosko, Wilk & Nusair (VWN5_RPA)
    0.8100   Lee, Yang & Parr

   => LibXC Density Thresholds  <==

    XC_HYB_GGA_XC_B3LYP:  1.00E-15 

   => Molecular Quadrature <=

    Radial Scheme          =       TREUTLER
    Pruning Scheme         =           NONE
    Nuclear Scheme         =       TREUTLER

    Blocking Scheme        =         OCTREE
    BS radius alpha        =              1
    Pruning alpha          =              1
    Radial Points          =             75
    Spherical Points       =            302
    Total Points           =        1037572
    Total Blocks           =           7197
    Max Points             =            256
    Max Functions          =            345
    Weights Tolerance      =       1.00E-15

   => Loading Basis Set <=

    Name: (DEF2-SVP AUX)
    Role: JKFIT
    Keyword: DF_BASIS_SCF
    atoms 1-14, 16-17, 20-21, 23-24, 26 entry C          line   198 file /Users/hoyoun/micromamba/envs/psi4env/share/psi4/basis/def2-universal-jkfit.gbs 
    atoms 15                            entry N          line   258 file /Users/hoyoun/micromamba/envs/psi4env/share/psi4/basis/def2-universal-jkfit.gbs 
    atoms 18-19, 22, 25, 27-28          entry O          line   318 file /Users/hoyoun/micromamba/envs/psi4env/share/psi4/basis/def2-universal-jkfit.gbs 
    atoms 29-51                         entry H          line    18 file /Users/hoyoun/micromamba/envs/psi4env/share/psi4/basis/def2-universal-jkfit.gbs 

  ==> Integral Setup <==

  ==> DiskDFJK: Density-Fitted J/K Matrices <==

    J tasked:                  Yes
    K tasked:                  Yes
    wK tasked:                  No
    OpenMP threads:              8
    Integrals threads:           8
    Memory [MiB]:             1849
    Algorithm:                Disk
    Integral Cache:           NONE
    Schwarz Cutoff:          1E-12
    Fitting Condition:       1E-10

   => Auxiliary Basis Set <=

  Basis Set: (DEF2-SVP AUX)
    Blend: DEF2-UNIVERSAL-JKFIT
    Number of shells: 838
    Number of basis functions: 2528
    Number of Cartesian functions: 2980
    Spherical Harmonics?: true
    Max angular momentum: 4

  Cached 4.8% of DFT collocation blocks in 0.280 [GiB].

  Minimum eigenvalue in the overlap matrix is 1.8917376354E-04.
  Reciprocal condition number of the overlap matrix is 2.4506607234E-05.
    Using symmetric orthogonalization.

  ==> Pre-Iterations <==

  SCF Guess: Superposition of Atomic Densities via on-the-fly atomic UHF (no occupation information).

   -------------------------
    Irrep   Nso     Nmo    
   -------------------------
     A        507     507 
   -------------------------
    Total     507     507
   -------------------------

  ==> Iterations <==

                           Total Energy        Delta E     RMS |[F,P]|

   @DF-RKS iter SAD: -1318.52385907134249   -1.31852e+03   0.00000e+00 
   @DF-RKS iter   1: -1318.00585251797793    5.18007e-01   3.14423e-03 ADIIS/DIIS
   @DF-RKS iter   2: -1317.52458732958871    4.81265e-01   3.78368e-03 ADIIS/DIIS
   @DF-RKS iter   3: -1319.17346905541854   -1.64888e+00   1.03126e-03 ADIIS/DIIS
   @DF-RKS iter   4: -1319.29659089805477   -1.23122e-01   2.98285e-04 ADIIS/DIIS
   @DF-RKS iter   5: -1319.30541202760446   -8.82113e-03   1.57312e-04 ADIIS/DIIS
   @DF-RKS iter   6: -1319.30810063340664   -2.68861e-03   5.72384e-05 DIIS
   @DF-RKS iter   7: -1319.30845205558239   -3.51422e-04   1.62640e-05 DIIS
   @DF-RKS iter   8: -1319.30847815459788   -2.60990e-05   3.65988e-06 DIIS
   @DF-RKS iter   9: -1319.30847937429849   -1.21970e-06   1.56530e-06 DIIS
   @DF-RKS iter  10: -1319.30847960999449   -2.35696e-07   5.95025e-07 DIIS
   @DF-RKS iter  11: -1319.30847964649479   -3.65003e-08   1.56936e-07 DIIS
   @DF-RKS iter  12: -1319.30847964876807   -2.27328e-09   6.10035e-08 DIIS
  Energy and wave function converged.


  ==> Post-Iterations <==

   Electrons on quadrature grid:
      Ntotal   =  203.9999381339 ; deviation = -6.187e-05 

    Orbital Energies [Eh]
    ---------------------

    Doubly Occupied:                                                      

       1A    -19.182679     2A    -19.172603     3A    -19.164159  
       4A    -19.145403     5A    -19.112363     6A    -19.106563  
       7A    -14.359739     8A    -10.331432     9A    -10.267006  
      10A    -10.259593    11A    -10.257464    12A    -10.255148  
      13A    -10.246866    14A    -10.241585    15A    -10.239372  
      16A    -10.230908    17A    -10.226063    18A    -10.224544  
      19A    -10.220398    20A    -10.204797    21A    -10.201527  
      22A    -10.199892    23A    -10.199339    24A    -10.198981  
      25A    -10.197234    26A    -10.193507    27A    -10.192887  
      28A    -10.192504    29A     -1.088564    30A     -1.072642  
      31A     -1.040528    32A     -1.036930    33A     -1.005764  
      34A     -0.997116    35A     -0.947800    36A     -0.878694  
      37A     -0.842340    38A     -0.806443    39A     -0.784311  
      40A     -0.767677    41A     -0.759914    42A     -0.744428  
      43A     -0.735922    44A     -0.714964    45A     -0.694340  
      46A     -0.678167    47A     -0.659491    48A     -0.638604  
      49A     -0.619279    50A     -0.613241    51A     -0.601838  
      52A     -0.600561    53A     -0.577418    54A     -0.556156  
      55A     -0.552160    56A     -0.534456    57A     -0.526085  
      58A     -0.513025    59A     -0.505948    60A     -0.502565  
      61A     -0.487786    62A     -0.484605    63A     -0.483529  
      64A     -0.470070    65A     -0.463098    66A     -0.458281  
      67A     -0.456335    68A     -0.453097    69A     -0.445043  
      70A     -0.440552    71A     -0.438731    72A     -0.434940  
      73A     -0.426456    74A     -0.420890    75A     -0.413030  
      76A     -0.409287    77A     -0.408320    78A     -0.403899  
      79A     -0.396526    80A     -0.396093    81A     -0.390749  
      82A     -0.385067    83A     -0.381594    84A     -0.374378  
      85A     -0.371775    86A     -0.364010    87A     -0.359694  
      88A     -0.356223    89A     -0.355270    90A     -0.349710  
      91A     -0.346614    92A     -0.345341    93A     -0.320666  
      94A     -0.302010    95A     -0.299162    96A     -0.278188  
      97A     -0.272532    98A     -0.262075    99A     -0.246881  
     100A     -0.244649   101A     -0.234413   102A     -0.215088  

    Virtual:                                                              

     103A     -0.067160   104A     -0.020053   105A     -0.014817  
     106A      0.016901   107A      0.040380   108A      0.047641  
     109A      0.053932   110A      0.055860   111A      0.061996  
     112A      0.075381   113A      0.082320   114A      0.087531  
     115A      0.090644   116A      0.098819   117A      0.102274  
     118A      0.105360   119A      0.107242   120A      0.110606  
     121A      0.114267   122A      0.118205   123A      0.121194  
     124A      0.123692   125A      0.128357   126A      0.129637  
     127A      0.132184   128A      0.134962   129A      0.136254  
     130A      0.143322   131A      0.149057   132A      0.152556  
     133A      0.156844   134A      0.159055   135A      0.165126  
     136A      0.171425   137A      0.179944   138A      0.185944  
     139A      0.198618   140A      0.202079   141A      0.208639  
     142A      0.223880   143A      0.227872   144A      0.230628  
     145A      0.237995   146A      0.247194   147A      0.262900  
     148A      0.268835   149A      0.277776   150A      0.280364  
     151A      0.295803   152A      0.305151   153A      0.311996  
     154A      0.325482   155A      0.333007   156A      0.337318  
     157A      0.342094   158A      0.348232   159A      0.359381  
     160A      0.366941   161A      0.377375   162A      0.383233  
     163A      0.391717   164A      0.399688   165A      0.411352  
     166A      0.421710   167A      0.427499   168A      0.430069  
     169A      0.434740   170A      0.439837   171A      0.441775  
     172A      0.447071   173A      0.451666   174A      0.455845  
     175A      0.468600   176A      0.469693   177A      0.476688  
     178A      0.480425   179A      0.486754   180A      0.499613  
     181A      0.503607   182A      0.509516   183A      0.515188  
     184A      0.518984   185A      0.528949   186A      0.537862  
     187A      0.541200   188A      0.546802   189A      0.555437  
     190A      0.557741   191A      0.563621   192A      0.569456  
     193A      0.577358   194A      0.580801   195A      0.588457  
     196A      0.590152   197A      0.595282   198A      0.600808  
     199A      0.608352   200A      0.612211   201A      0.615343  
     202A      0.618861   203A      0.622862   204A      0.623250  
     205A      0.629155   206A      0.633546   207A      0.638175  
     208A      0.638767   209A      0.643332   210A      0.644989  
     211A      0.648995   212A      0.651740   213A      0.655505  
     214A      0.657778   215A      0.658667   216A      0.661938  
     217A      0.665002   218A      0.668865   219A      0.670730  
     220A      0.674832   221A      0.676427   222A      0.680655  
     223A      0.682635   224A      0.684492   225A      0.687505  
     226A      0.689632   227A      0.697212   228A      0.699841  
     229A      0.708458   230A      0.709820   231A      0.723072  
     232A      0.724867   233A      0.732328   234A      0.742403  
     235A      0.745581   236A      0.758478   237A      0.769549  
     238A      0.775585   239A      0.779416   240A      0.780868  
     241A      0.788026   242A      0.795878   243A      0.812989  
     244A      0.821571   245A      0.838988   246A      0.843037  
     247A      0.857832   248A      0.871652   249A      0.874165  
     250A      0.899100   251A      0.904550   252A      0.921690  
     253A      0.927882   254A      0.935454   255A      0.945681  
     256A      0.954333   257A      0.962484   258A      0.977307  
     259A      0.986914   260A      0.998300   261A      1.013398  
     262A      1.018928   263A      1.022367   264A      1.038300  
     265A      1.044900   266A      1.061748   267A      1.065967  
     268A      1.074981   269A      1.086469   270A      1.099961  
     271A      1.106148   272A      1.112887   273A      1.123593  
     274A      1.134253   275A      1.138937   276A      1.165267  
     277A      1.173769   278A      1.185491   279A      1.203998  
     280A      1.214082   281A      1.221435   282A      1.225388  
     283A      1.232491   284A      1.240009   285A      1.259308  
     286A      1.264286   287A      1.271478   288A      1.276113  
     289A      1.281669   290A      1.295086   291A      1.316270  
     292A      1.324485   293A      1.326577   294A      1.341754  
     295A      1.346758   296A      1.352367   297A      1.358943  
     298A      1.369332   299A      1.385379   300A      1.393285  
     301A      1.401503   302A      1.421646   303A      1.426687  
     304A      1.436727   305A      1.444998   306A      1.455726  
     307A      1.468818   308A      1.491069   309A      1.494828  
     310A      1.509503   311A      1.520587   312A      1.524259  
     313A      1.527057   314A      1.529567   315A      1.537697  
     316A      1.545981   317A      1.553827   318A      1.573037  
     319A      1.579663   320A      1.586138   321A      1.595258  
     322A      1.614387   323A      1.620806   324A      1.622432  
     325A      1.644791   326A      1.656092   327A      1.671835  
     328A      1.683721   329A      1.684896   330A      1.690370  
     331A      1.691474   332A      1.704981   333A      1.712392  
     334A      1.719385   335A      1.726978   336A      1.731117  
     337A      1.733234   338A      1.741344   339A      1.742534  
     340A      1.746266   341A      1.753638   342A      1.756955  
     343A      1.758418   344A      1.762823   345A      1.764669  
     346A      1.773548   347A      1.778161   348A      1.783567  
     349A      1.788072   350A      1.797404   351A      1.806054  
     352A      1.806935   353A      1.811620   354A      1.824709  
     355A      1.826738   356A      1.831567   357A      1.834776  
     358A      1.839898   359A      1.848135   360A      1.853439  
     361A      1.860769   362A      1.861885   363A      1.869157  
     364A      1.879543   365A      1.886211   366A      1.893034  
     367A      1.900850   368A      1.905100   369A      1.913915  
     370A      1.923268   371A      1.924289   372A      1.930904  
     373A      1.935397   374A      1.946513   375A      1.954439  
     376A      1.965850   377A      1.970848   378A      1.978930  
     379A      1.981871   380A      2.001258   381A      2.011986  
     382A      2.018983   383A      2.022944   384A      2.031705  
     385A      2.038448   386A      2.056610   387A      2.057630  
     388A      2.072873   389A      2.085714   390A      2.097879  
     391A      2.110725   392A      2.116190   393A      2.133209  
     394A      2.135990   395A      2.149014   396A      2.158019  
     397A      2.162254   398A      2.170114   399A      2.175275  
     400A      2.182261   401A      2.192209   402A      2.206447  
     403A      2.214323   404A      2.222966   405A      2.239209  
     406A      2.247807   407A      2.252871   408A      2.263400  
     409A      2.276683   410A      2.282351   411A      2.287932  
     412A      2.298352   413A      2.304711   414A      2.313529  
     415A      2.339013   416A      2.346518   417A      2.350130  
     418A      2.361071   419A      2.363493   420A      2.370957  
     421A      2.377309   422A      2.383402   423A      2.398388  
     424A      2.403731   425A      2.413412   426A      2.417502  
     427A      2.447851   428A      2.466925   429A      2.467503  
     430A      2.494782   431A      2.513672   432A      2.528632  
     433A      2.537742   434A      2.540095   435A      2.564942  
     436A      2.583654   437A      2.596438   438A      2.608038  
     439A      2.620493   440A      2.626481   441A      2.643978  
     442A      2.649874   443A      2.655049   444A      2.660857  
     445A      2.665863   446A      2.674964   447A      2.688364  
     448A      2.694964   449A      2.710942   450A      2.716816  
     451A      2.722197   452A      2.742433   453A      2.745319  
     454A      2.770766   455A      2.783275   456A      2.792712  
     457A      2.798468   458A      2.810578   459A      2.820919  
     460A      2.828505   461A      2.829910   462A      2.838331  
     463A      2.849756   464A      2.857174   465A      2.866176  
     466A      2.868546   467A      2.884779   468A      2.904068  
     469A      2.906250   470A      2.913475   471A      2.916810  
     472A      2.933177   473A      2.941544   474A      2.952568  
     475A      2.963802   476A      2.971770   477A      2.978569  
     478A      2.986677   479A      3.005269   480A      3.015186  
     481A      3.023060   482A      3.034213   483A      3.037449  
     484A      3.040310   485A      3.055800   486A      3.070546  
     487A      3.099627   488A      3.107144   489A      3.134629  
     490A      3.176702   491A      3.180983   492A      3.211635  
     493A      3.250372   494A      3.268167   495A      3.279486  
     496A      3.302166   497A      3.328180   498A      3.361112  
     499A      3.436076   500A      3.469710   501A      3.493835  
     502A      3.548416   503A      3.650214   504A      3.663507  
     505A      3.673553   506A      3.682592   507A      3.806652  

    Final Occupation by Irrep:
              A 
    DOCC [   102 ]
    NA   [   102 ]
    NB   [   102 ]

  @DF-RKS Final Energy: -1319.30847964876807

   => Energetics <=

    Nuclear Repulsion Energy =           2734.1279889522461417
    One-Electron Energy =               -7234.5287335124530728
    Two-Electron Energy =                3327.5958249333134518
    DFT Exchange-Correlation Energy =    -146.3877926119349411
    Empirical Dispersion Energy =          -0.1157674099392502
    VV10 Nonlocal Energy =                  0.0000000000000000
    Total Energy =                      -1319.3084796487680705

Computation Completed


Properties will be evaluated at   0.000000,   0.000000,   0.000000 [a0]

Properties computed using the SCF density matrix


 Multipole Moments:

 ------------------------------------------------------------------------------------
     Multipole            Electronic (a.u.)      Nuclear  (a.u.)        Total (a.u.)
 ------------------------------------------------------------------------------------

 L = 1.  Multiply by 2.5417464519 to convert [e a0] to [Debye]
 Dipole X            :         78.0846659          -78.4500968           -0.3654309
 Dipole Y            :        -29.0882706           27.9649210           -1.1233495
 Dipole Z            :         45.2846320          -44.3865998            0.8980322
 Magnitude           :                                                    1.4838853

 ------------------------------------------------------------------------------------

*** tstop() called on choehoyun-ui-MacBookAir.local at Mon Aug 10 19:21:23 2026
Module time:
	user time   =     650.66 seconds =      10.84 minutes
	system time =      13.52 seconds =       0.23 minutes
	total time  =        111 seconds =       1.85 minutes
Total time:
	user time   =     650.66 seconds =      10.84 minutes
	system time =      13.52 seconds =       0.23 minutes
	total time  =        111 seconds =       1.85 minutes

    Psi4 stopped on: Monday, 10 August 2026 07:21PM
    Psi4 wall time for execution: 0:01:51.34

*** Psi4 exiting successfully. Buy a developer a beer!
