
    -----------------------------------------------------------------------
          Psi4: An Open-Source Ab Initio Electronic Structure Package
                               Psi4 1.11 release

                         Git: Rev {} zzzzzzz 


    D. G. A. Smith, L. A. Burns, A. C. Simmonett, R. M. Parrish,
    M. C. Schieber, R. Galvelis, P. Kraus, H. Kruse, R. Di Remigio,
    A. Alenaizan, A. M. James, S. Lehtola, J. P. Misiewicz, M. Scheurer,
    R. A. Shaw, J. B. Schriber, Y. Xie, Z. L. Glick, D. A. Sirianni,
    J. S. O'Brien, J. M. Waldrop, A. Kumar, E. G. Hohenstein,
    B. P. Pritchard, B. R. Brooks, H. F. Schaefer III, A. Yu. Sokolov,
    K. Patkowski, A. E. DePrince III, U. Bozkaya, R. A. King,
    F. A. Evangelista, J. M. Turney, T. D. Crawford, C. D. Sherrill,
    J. Chem. Phys. 152(18) 184108 (2020). https://doi.org/10.1063/5.0006002

                            Additional Code Authors
    E. T. Seidl, C. L. Janssen, E. F. Valeev, M. L. Leininger,
    J. F. Gonthier, R. M. Richard, H. R. McAlexander, M. Saitow, X. Wang,
    P. Verma, M. H. Lechner, A. Jiang, S. Behnle, A. G. Heide,
    M. F. Herbst, D. L. Poole, T. Győri, E. C. Mitchell, J. P. Pederson,
    and A. M. Wallace

             Previous Authors, Complete List of Code Contributors,
                       and Citations for Specific Modules
    https://github.com/psi4/psi4/blob/master/codemeta.json
    https://github.com/psi4/psi4/graphs/contributors
    https://psicode.org/psi4manual/master/introduction.html#citing-psifour

    -----------------------------------------------------------------------


    Psi4 started on: Sunday, 09 August 2026 04:18PM

    Process ID: 61714
    Host:       choehoyun-ui-MacBookAir.local
    PSIDATADIR: /Users/hoyoun/micromamba/envs/psi4env/share/psi4
    Memory:     500.0 MiB
    Threads:    8
    Addons:     a̶d̶c̶c̶, a̶m̶b̶i̶t̶, b̶s̶e̶, c̶c̶t̶3̶, c̶f̶o̶u̶r̶, c̶h̶e̶m̶p̶s̶2̶, c̶p̶p̶e̶, d̶d̶x̶, dftd3,
                d̶f̶t̶d̶4̶, dkh, ecpint, einsums, f̶o̶r̶t̶e̶, gauxc, g̶c̶p̶, g̶d̶m̶a̶,
                g̶e̶o̶m̶e̶t̶r̶i̶c̶, g̶p̶u̶_̶d̶f̶c̶c̶, i̶n̶t̶e̶g̶r̶a̶t̶o̶r̶x̶x̶, i̶p̶i̶,
                l̶i̶b̶e̶f̶p̶, m̶d̶i̶, m̶p̶2̶d̶, m̶r̶c̶c̶, ooo, o̶p̶e̶n̶f̶e̶r̶m̶i̶o̶n̶p̶s̶i̶4̶,
                pcmsolver, p̶s̶i̶4̶f̶o̶c̶k̶c̶i̶, p̶s̶i̶x̶a̶s̶, p̶y̶e̶i̶n̶s̶u̶m̶s̶, r̶e̶s̶p̶,
                s̶i̶m̶i̶n̶t̶, s̶n̶s̶m̶p̶2̶, v̶2̶r̶d̶m̶_̶c̶a̶s̶s̶c̶f̶

  ==> Input File <==

--------------------------------------------------------------------------
memory 3 GB
molecule mol {
0 1
C -0.29093197942132 0.34042297591097 -0.43282496936654
C 0.46914696656272 1.67951188092797 -0.09314399356963
C 1.01970292779174 -0.34905297514077 -0.04676499670964
C 1.64945588272802 0.79360494383874 0.24082998275288
H 0.03623499728764 2.24117084101309 0.73639494785495
H 0.59174595801527 2.35123683326992 -0.94465493318962
H 2.65112181163620 1.01648792805138 0.58461995873709
H -0.54489096149148 0.24672698224651 -1.49157689427940
C -1.47224889562174 0.01888999868019 0.41463597067929
H -1.32297990615024 0.13841999038487 1.48479489458483
C -2.64591181222320 -0.40712397102227 -0.03559599728427
H -2.82853379934809 -0.54103596160283 -1.09512192218630
H -3.46426875392586 -0.63384295501581 0.63426295503045
C 1.36270490334531 -1.79156187285076 -0.02201999827269
H 2.37534283117432 -1.95459686135306 0.34697997527642
H 0.66800395282335 -2.34448983335608 0.61520395619948
H 1.28671190884255 -2.22822884180942 -1.02159792725930
units angstrom
no_reorient
no_com
}
set basis def2-TZVP
set scf_type df
set freeze_core true
set e_convergence 8
energy('b3lyp-d3bj')
--------------------------------------------------------------------------

  Memory set to   2.794 GiB by Python driver.

Scratch directory: /Users/hoyoun/Documents/Yonsei_AX_Camp/(진짜_이게_최종)/calibration/dft_work/_scratch/P46/
   => Libint2 <=

    Primary   basis highest AM E, G, H:  7, 6, 3
    Auxiliary basis highest AM E, G, H:  7, 7, 4
    Onebody   basis highest AM E, G, H:  -, -, -
    Solid Harmonics ordering:            Gaussian

*** tstart() called on choehoyun-ui-MacBookAir.local
*** at Sun Aug  9 16:18:42 2026

   => Loading Basis Set <=

    Name: DEF2-TZVP
    Role: ORBITAL
    Keyword: BASIS
    atoms 1-4, 9, 11, 14        entry C          line   123 file /Users/hoyoun/micromamba/envs/psi4env/share/psi4/basis/def2-tzvp.gbs 
    atoms 5-8, 10, 12-13, 15-17 entry H          line    15 file /Users/hoyoun/micromamba/envs/psi4env/share/psi4/basis/def2-tzvp.gbs 

   => B3LYP-D3(BJ): Empirical Dispersion <=

    Grimme's -D3 (BJ-damping) Dispersion Correction
    Grimme S.; Ehrlich S.; Goerigk L. (2011), J. Comput. Chem., 32: 1456

        s6 =       1.000000
        s8 =       1.988900
        a1 =       0.398100
        a2 =       4.421100


         ---------------------------------------------------------
                                   SCF
               by Justin Turney, Rob Parrish, Andy Simmonett
                          and Daniel G. A. Smith
                              RKS Reference
                        8 Threads,   2861 MiB Core
         ---------------------------------------------------------

  ==> Geometry <==

    Molecular point group: c1
    Full point group: C1

    Geometry (in Angstrom), charge = 0, multiplicity = 1:

       Center              X                  Y                   Z               Mass       
    ------------   -----------------  -----------------  -----------------  -----------------
         C           -0.290931979421     0.340422975911    -0.432824969367    12.000000000000
         C            0.469146966563     1.679511880928    -0.093143993570    12.000000000000
         C            1.019702927792    -0.349052975141    -0.046764996710    12.000000000000
         C            1.649455882728     0.793604943839     0.240829982753    12.000000000000
         H            0.036234997288     2.241170841013     0.736394947855     1.007825032230
         H            0.591745958015     2.351236833270    -0.944654933190     1.007825032230
         H            2.651121811636     1.016487928051     0.584619958737     1.007825032230
         H           -0.544890961491     0.246726982247    -1.491576894279     1.007825032230
         C           -1.472248895622     0.018889998680     0.414635970679    12.000000000000
         H           -1.322979906150     0.138419990385     1.484794894585     1.007825032230
         C           -2.645911812223    -0.407123971022    -0.035595997284    12.000000000000
         H           -2.828533799348    -0.541035961603    -1.095121922186     1.007825032230
         H           -3.464268753926    -0.633842955016     0.634262955030     1.007825032230
         C            1.362704903345    -1.791561872851    -0.022019998273    12.000000000000
         H            2.375342831174    -1.954596861353     0.346979975276     1.007825032230
         H            0.668003952823    -2.344489833356     0.615203956199     1.007825032230
         H            1.286711908843    -2.228228841809    -1.021597927259     1.007825032230

  Running in c1 symmetry.

  Rotational constants: A =      0.13360  B =      0.07230  C =      0.05106 [cm^-1]
  Rotational constants: A =   4005.31078  B =   2167.58873  C =   1530.65372 [MHz]
  Nuclear repulsion =  280.068380902975150

  Charge       = 0
  Multiplicity = 1
  Electrons    = 52
  Nalpha       = 26
  Nbeta        = 26

  ==> Algorithm <==

  SCF Algorithm Type is DF.
  DIIS enabled.
  MOM disabled.
  Fractional occupation disabled.
  Guess Type is SAD.
  Energy threshold   = 1.00e-08
  Density threshold  = 1.00e-06
  Integral threshold = 1.00e-12

  ==> Primary Basis <==

  Basis Set: DEF2-TZVP
    Blend: DEF2-TZVP
    Number of shells: 117
    Number of basis functions: 277
    Number of Cartesian functions: 312
    Spherical Harmonics?: true
    Max angular momentum: 3

  ==> DFT Potential <==

   => LibXC <=

    Version 7.1.2
    S. Lehtola, C. Steigemann, M. J. T. Oliveira, and M. A. L. Marques,  SoftwareX 7, 1–5 (2018) (10.1016/j.softx.2017.11.002)

   => Composite Functional: B3LYP-D3BJ2B <= 

    B3LYP-d3bj2b Hyb-GGA Exchange-Correlation Functional

    P. J. Stephens, F. J. Devlin, C. F. Chabalowski, and M. J. Frisch,  J. Phys. Chem. 98, 11623 (1994) (10.1021/j100096a001)

    Deriv               =              1
    GGA                 =           TRUE
    Meta                =          FALSE

    Exchange Hybrid     =           TRUE
    MP2 Hybrid          =          FALSE

   => Exchange Functionals <=

    0.0800   Slater exchange
    0.7200         Becke 88

   => Exact (HF) Exchange <=

    0.2000               HF 

   => Correlation Functionals <=

    0.1900   Vosko, Wilk & Nusair (VWN5_RPA)
    0.8100   Lee, Yang & Parr

   => LibXC Density Thresholds  <==

    XC_HYB_GGA_XC_B3LYP:  1.00E-15 

   => Molecular Quadrature <=

    Radial Scheme          =       TREUTLER
    Pruning Scheme         =           NONE
    Nuclear Scheme         =       TREUTLER

    Blocking Scheme        =         OCTREE
    BS radius alpha        =              1
    Pruning alpha          =              1
    Radial Points          =             75
    Spherical Points       =            302
    Total Points           =         360009
    Total Blocks           =           2687
    Max Points             =            256
    Max Functions          =            265
    Weights Tolerance      =       1.00E-15

   => Loading Basis Set <=

    Name: (DEF2-TZVP AUX)
    Role: JKFIT
    Keyword: DF_BASIS_SCF
    atoms 1-4, 9, 11, 14        entry C          line   198 file /Users/hoyoun/micromamba/envs/psi4env/share/psi4/basis/def2-universal-jkfit.gbs 
    atoms 5-8, 10, 12-13, 15-17 entry H          line    18 file /Users/hoyoun/micromamba/envs/psi4env/share/psi4/basis/def2-universal-jkfit.gbs 

  ==> Integral Setup <==

  DFHelper Memory: AOs need 0.411 GiB; user supplied 0.411 GiB. 
  SCF_SUBTYPE=INCORE selected. In-core MEM_DF algorithm will be used.
  Using in-core AOs.

  ==> MemDFJK: Density-Fitted J/K Matrices <==

    J tasked:                   Yes
    K tasked:                   Yes
    wK tasked:                   No
    OpenMP threads:               8
    Memory [MiB]:               420
    Algorithm:                 Core
    Schwarz Cutoff:           1E-12
    Mask sparsity (%):       3.8890
    Fitting Condition:        1E-10

   => Auxiliary Basis Set <=

  Basis Set: (DEF2-TZVP AUX)
    Blend: DEF2-UNIVERSAL-JKFIT
    Number of shells: 235
    Number of basis functions: 705
    Number of Cartesian functions: 823
    Spherical Harmonics?: true
    Max angular momentum: 4

  Cached 50.0% of DFT collocation blocks in 1.057 [GiB].

  Minimum eigenvalue in the overlap matrix is 2.3560213173E-05.
  Reciprocal condition number of the overlap matrix is 2.3118649917E-06.
    Using symmetric orthogonalization.

  ==> Pre-Iterations <==

  SCF Guess: Superposition of Atomic Densities via on-the-fly atomic UHF (no occupation information).

   -------------------------
    Irrep   Nso     Nmo    
   -------------------------
     A        277     277 
   -------------------------
    Total     277     277
   -------------------------

  ==> Iterations <==

                           Total Energy        Delta E     RMS |[F,P]|

   @DF-RKS iter SAD:  -272.13421599129060   -2.72134e+02   0.00000e+00 
   @DF-RKS iter   1:  -272.04427586381325    8.99401e-02   4.36299e-03 ADIIS/DIIS
   @DF-RKS iter   2:  -271.38275705746827    6.61519e-01   5.77688e-03 ADIIS/DIIS
   @DF-RKS iter   3:  -272.77857965724507   -1.39582e+00   1.02083e-03 ADIIS/DIIS
   @DF-RKS iter   4:  -272.80420641360308   -2.56268e-02   6.41950e-04 ADIIS/DIIS
   @DF-RKS iter   5:  -272.81903319959599   -1.48268e-02   1.41093e-04 ADIIS/DIIS
   @DF-RKS iter   6:  -272.81972110340513   -6.87904e-04   3.65469e-05 DIIS
   @DF-RKS iter   7:  -272.81976851814659   -4.74147e-05   1.15415e-05 DIIS
   @DF-RKS iter   8:  -272.81977320409658   -4.68595e-06   3.84883e-06 DIIS
   @DF-RKS iter   9:  -272.81977374975537   -5.45659e-07   7.67082e-07 DIIS
   @DF-RKS iter  10:  -272.81977377160604   -2.18507e-08   2.09823e-07 DIIS
   @DF-RKS iter  11:  -272.81977377321476   -1.60873e-09   5.28746e-08 DIIS
  Energy and wave function converged.


  ==> Post-Iterations <==

   Electrons on quadrature grid:
      Ntotal   =   52.0000507108 ; deviation = 5.071e-05 

    Orbital Energies [Eh]
    ---------------------

    Doubly Occupied:                                                      

       1A    -10.180069     2A    -10.176958     3A    -10.173521  
       4A    -10.172157     5A    -10.168832     6A    -10.165140  
       7A    -10.161978     8A     -0.868167     9A     -0.772403  
      10A     -0.735504    11A     -0.655589    12A     -0.625755  
      13A     -0.564118    14A     -0.516354    15A     -0.470469  
      16A     -0.460050    17A     -0.442385    18A     -0.432499  
      19A     -0.413615    20A     -0.391678    21A     -0.365031  
      22A     -0.345335    23A     -0.337679    24A     -0.314680  
      25A     -0.260503    26A     -0.244980  

    Virtual:                                                              

      27A     -0.000921    28A      0.018202    29A      0.046225  
      30A      0.063806    31A      0.065303    32A      0.076001  
      33A      0.087477    34A      0.106530    35A      0.109450  
      36A      0.114541    37A      0.123718    38A      0.139190  
      39A      0.141883    40A      0.149001    41A      0.160070  
      42A      0.166457    43A      0.193710    44A      0.204382  
      45A      0.218384    46A      0.228911    47A      0.245899  
      48A      0.250197    49A      0.263754    50A      0.283598  
      51A      0.293172    52A      0.297362    53A      0.312365  
      54A      0.320874    55A      0.340319    56A      0.363375  
      57A      0.365555    58A      0.388152    59A      0.389512  
      60A      0.402494    61A      0.409766    62A      0.420395  
      63A      0.423692    64A      0.430655    65A      0.436667  
      66A      0.442336    67A      0.451422    68A      0.467512  
      69A      0.469718    70A      0.478623    71A      0.484025  
      72A      0.499395    73A      0.507979    74A      0.528734  
      75A      0.535577    76A      0.572980    77A      0.573758  
      78A      0.582155    79A      0.592110    80A      0.620442  
      81A      0.647437    82A      0.684402    83A      0.702926  
      84A      0.717206    85A      0.738605    86A      0.748366  
      87A      0.794647    88A      0.845328    89A      0.882010  
      90A      0.890895    91A      0.906028    92A      0.920555  
      93A      0.934259    94A      0.965706    95A      0.970436  
      96A      0.979729    97A      0.997297    98A      1.000318  
      99A      1.026034   100A      1.041662   101A      1.059875  
     102A      1.071285   103A      1.099290   104A      1.142677  
     105A      1.144534   106A      1.161335   107A      1.178354  
     108A      1.199672   109A      1.221636   110A      1.241496  
     111A      1.251968   112A      1.277623   113A      1.307551  
     114A      1.338024   115A      1.346675   116A      1.351762  
     117A      1.401671   118A      1.450224   119A      1.465901  
     120A      1.485485   121A      1.493910   122A      1.516464  
     123A      1.524859   124A      1.530594   125A      1.541891  
     126A      1.569711   127A      1.576998   128A      1.599457  
     129A      1.607357   130A      1.620081   131A      1.658180  
     132A      1.681249   133A      1.704387   134A      1.730849  
     135A      1.746427   136A      1.766116   137A      1.783905  
     138A      1.824216   139A      1.843302   140A      1.855364  
     141A      1.870155   142A      1.887234   143A      1.932335  
     144A      1.959944   145A      1.974937   146A      1.989288  
     147A      2.036751   148A      2.063271   149A      2.082844  
     150A      2.105385   151A      2.151491   152A      2.172246  
     153A      2.176117   154A      2.212580   155A      2.232972  
     156A      2.237084   157A      2.294698   158A      2.303849  
     159A      2.324232   160A      2.334828   161A      2.360527  
     162A      2.385951   163A      2.401416   164A      2.425987  
     165A      2.440370   166A      2.476564   167A      2.485159  
     168A      2.511747   169A      2.525366   170A      2.533329  
     171A      2.542215   172A      2.565589   173A      2.579427  
     174A      2.591574   175A      2.611694   176A      2.630313  
     177A      2.648847   178A      2.668393   179A      2.688564  
     180A      2.733037   181A      2.741777   182A      2.759270  
     183A      2.775136   184A      2.800209   185A      2.837531  
     186A      2.869075   187A      2.883899   188A      2.904297  
     189A      2.929755   190A      2.947526   191A      2.965173  
     192A      2.972868   193A      2.990788   194A      2.993783  
     195A      3.017610   196A      3.048126   197A      3.069410  
     198A      3.076917   199A      3.082165   200A      3.087623  
     201A      3.101176   202A      3.120492   203A      3.146012  
     204A      3.188422   205A      3.196942   206A      3.216317  
     207A      3.225120   208A      3.229615   209A      3.244780  
     210A      3.272425   211A      3.283054   212A      3.306439  
     213A      3.314277   214A      3.329607   215A      3.353025  
     216A      3.368120   217A      3.388566   218A      3.417133  
     219A      3.430968   220A      3.452206   221A      3.472038  
     222A      3.495804   223A      3.512901   224A      3.548514  
     225A      3.555840   226A      3.584235   227A      3.600616  
     228A      3.630802   229A      3.664769   230A      3.702398  
     231A      3.735915   232A      3.748664   233A      3.776294  
     234A      3.805595   235A      3.811270   236A      3.857852  
     237A      3.888381   238A      3.936418   239A      3.990277  
     240A      3.998869   241A      4.033230   242A      4.065417  
     243A      4.078068   244A      4.110727   245A      4.146431  
     246A      4.193500   247A      4.241463   248A      4.282222  
     249A      4.307980   250A      4.341615   251A      4.348819  
     252A      4.401470   253A      4.430712   254A      4.475378  
     255A      4.529862   256A      4.569930   257A      4.591116  
     258A      4.637911   259A      4.672668   260A      4.684725  
     261A      4.748951   262A      4.779793   263A      4.842283  
     264A      4.885281   265A      4.944978   266A      4.993268  
     267A      5.077243   268A      5.138826   269A      5.322292  
     270A      5.498319   271A     22.150328   272A     22.308025  
     273A     22.381499   274A     22.476506   275A     22.669520  
     276A     22.753783   277A     23.225708  

    Final Occupation by Irrep:
              A 
    DOCC [    26 ]
    NA   [    26 ]
    NB   [    26 ]

  @DF-RKS Final Energy:  -272.81977377321476

   => Energetics <=

    Nuclear Repulsion Energy =            280.0683809029751501
    One-Electron Energy =                -920.5912929913661173
    Two-Electron Energy =                 401.5241823496247662
    DFT Exchange-Correlation Energy =     -33.7966126280740298
    Empirical Dispersion Energy =          -0.0244314063745172
    VV10 Nonlocal Energy =                  0.0000000000000000
    Total Energy =                       -272.8197737732147630

Computation Completed


Properties will be evaluated at   0.000000,   0.000000,   0.000000 [a0]

Properties computed using the SCF density matrix


 Multipole Moments:

 ------------------------------------------------------------------------------------
     Multipole            Electronic (a.u.)      Nuclear  (a.u.)        Total (a.u.)
 ------------------------------------------------------------------------------------

 L = 1.  Multiply by 2.5417464519 to convert [e a0] to [Debye]
 Dipole X            :          0.1351337           -0.0000076            0.1351261
 Dipole Y            :         -0.1129255           -0.0000113           -0.1129368
 Dipole Z            :         -0.0271115            0.0000019           -0.0271096
 Magnitude           :                                                    0.1781817

 ------------------------------------------------------------------------------------

*** tstop() called on choehoyun-ui-MacBookAir.local at Sun Aug  9 16:18:51 2026
Module time:
	user time   =      55.38 seconds =       0.92 minutes
	system time =       1.46 seconds =       0.02 minutes
	total time  =          9 seconds =       0.15 minutes
Total time:
	user time   =      55.38 seconds =       0.92 minutes
	system time =       1.46 seconds =       0.02 minutes
	total time  =          9 seconds =       0.15 minutes

    Psi4 stopped on: Sunday, 09 August 2026 04:18PM
    Psi4 wall time for execution: 0:00:08.65

*** Psi4 exiting successfully. Buy a developer a beer!
