
    -----------------------------------------------------------------------
          Psi4: An Open-Source Ab Initio Electronic Structure Package
                               Psi4 1.11 release

                         Git: Rev {} zzzzzzz 


    D. G. A. Smith, L. A. Burns, A. C. Simmonett, R. M. Parrish,
    M. C. Schieber, R. Galvelis, P. Kraus, H. Kruse, R. Di Remigio,
    A. Alenaizan, A. M. James, S. Lehtola, J. P. Misiewicz, M. Scheurer,
    R. A. Shaw, J. B. Schriber, Y. Xie, Z. L. Glick, D. A. Sirianni,
    J. S. O'Brien, J. M. Waldrop, A. Kumar, E. G. Hohenstein,
    B. P. Pritchard, B. R. Brooks, H. F. Schaefer III, A. Yu. Sokolov,
    K. Patkowski, A. E. DePrince III, U. Bozkaya, R. A. King,
    F. A. Evangelista, J. M. Turney, T. D. Crawford, C. D. Sherrill,
    J. Chem. Phys. 152(18) 184108 (2020). https://doi.org/10.1063/5.0006002

                            Additional Code Authors
    E. T. Seidl, C. L. Janssen, E. F. Valeev, M. L. Leininger,
    J. F. Gonthier, R. M. Richard, H. R. McAlexander, M. Saitow, X. Wang,
    P. Verma, M. H. Lechner, A. Jiang, S. Behnle, A. G. Heide,
    M. F. Herbst, D. L. Poole, T. Győri, E. C. Mitchell, J. P. Pederson,
    and A. M. Wallace

             Previous Authors, Complete List of Code Contributors,
                       and Citations for Specific Modules
    https://github.com/psi4/psi4/blob/master/codemeta.json
    https://github.com/psi4/psi4/graphs/contributors
    https://psicode.org/psi4manual/master/introduction.html#citing-psifour

    -----------------------------------------------------------------------


    Psi4 started on: Sunday, 09 August 2026 01:14AM

    Process ID: 41463
    Host:       choehoyun-ui-MacBookAir.local
    PSIDATADIR: /Users/hoyoun/micromamba/envs/psi4env/share/psi4
    Memory:     500.0 MiB
    Threads:    1
    Addons:     a̶d̶c̶c̶, a̶m̶b̶i̶t̶, b̶s̶e̶, c̶c̶t̶3̶, c̶f̶o̶u̶r̶, c̶h̶e̶m̶p̶s̶2̶, c̶p̶p̶e̶, d̶d̶x̶, dftd3,
                d̶f̶t̶d̶4̶, dkh, ecpint, einsums, f̶o̶r̶t̶e̶, gauxc, g̶c̶p̶, g̶d̶m̶a̶,
                g̶e̶o̶m̶e̶t̶r̶i̶c̶, g̶p̶u̶_̶d̶f̶c̶c̶, i̶n̶t̶e̶g̶r̶a̶t̶o̶r̶x̶x̶, i̶p̶i̶,
                l̶i̶b̶e̶f̶p̶, m̶d̶i̶, m̶p̶2̶d̶, m̶r̶c̶c̶, ooo, o̶p̶e̶n̶f̶e̶r̶m̶i̶o̶n̶p̶s̶i̶4̶,
                pcmsolver, p̶s̶i̶4̶f̶o̶c̶k̶c̶i̶, p̶s̶i̶x̶a̶s̶, p̶y̶e̶i̶n̶s̶u̶m̶s̶, r̶e̶s̶p̶,
                s̶i̶m̶i̶n̶t̶, s̶n̶s̶m̶p̶2̶, v̶2̶r̶d̶m̶_̶c̶a̶s̶s̶c̶f̶

  ==> Input File <==

--------------------------------------------------------------------------
memory 6 GB
molecule mol {
0 1
C 0.22259259194071 1.42799813569254 0.02723212001828
C -0.97436060303120 0.49751728341616 -0.13040233191114
C -0.41680155829099 -0.87383434822413 0.25408915427826
C 1.06882298333542 -0.72158791370553 -0.09552631408967
O 1.36453901114057 0.68260630736087 0.07749465314437
O 0.23335203963534 2.62270411245938 0.09577055963323
H -1.29093805537852 0.53692757575482 -1.17703075460680
H -1.80453107804235 0.84823166488973 0.47961712689246
H -0.53487837852459 -1.04496275843567 1.32593970851677
H -0.88192758173735 -1.70472717022216 -0.27573784787466
H 1.27495165154034 -0.98951293439642 -1.13553098592650
H 1.73917897741262 -1.28135995458958 0.55408491192538
units angstrom
no_reorient
no_com
}
set basis def2-TZVP
set scf_type df
set freeze_core true
energy('b3lyp-d3bj')
--------------------------------------------------------------------------

  Memory set to   5.588 GiB by Python driver.

Scratch directory: /tmp/
   => Libint2 <=

    Primary   basis highest AM E, G, H:  7, 6, 3
    Auxiliary basis highest AM E, G, H:  7, 7, 4
    Onebody   basis highest AM E, G, H:  -, -, -
    Solid Harmonics ordering:            Gaussian

*** tstart() called on choehoyun-ui-MacBookAir.local
*** at Sun Aug  9 01:14:03 2026

   => Loading Basis Set <=

    Name: DEF2-TZVP
    Role: ORBITAL
    Keyword: BASIS
    atoms 1-4  entry C          line   123 file /Users/hoyoun/micromamba/envs/psi4env/share/psi4/basis/def2-tzvp.gbs 
    atoms 5-6  entry O          line   189 file /Users/hoyoun/micromamba/envs/psi4env/share/psi4/basis/def2-tzvp.gbs 
    atoms 7-12 entry H          line    15 file /Users/hoyoun/micromamba/envs/psi4env/share/psi4/basis/def2-tzvp.gbs 

   => B3LYP-D3(BJ): Empirical Dispersion <=

    Grimme's -D3 (BJ-damping) Dispersion Correction
    Grimme S.; Ehrlich S.; Goerigk L. (2011), J. Comput. Chem., 32: 1456

        s6 =       1.000000
        s8 =       1.988900
        a1 =       0.398100
        a2 =       4.421100


         ---------------------------------------------------------
                                   SCF
               by Justin Turney, Rob Parrish, Andy Simmonett
                          and Daniel G. A. Smith
                              RKS Reference
                        1 Threads,   5722 MiB Core
         ---------------------------------------------------------

  ==> Geometry <==

    Molecular point group: c1
    Full point group: C1

    Geometry (in Angstrom), charge = 0, multiplicity = 1:

       Center              X                  Y                   Z               Mass       
    ------------   -----------------  -----------------  -----------------  -----------------
         C            0.222592591941     1.427998135693     0.027232120018    12.000000000000
         C           -0.974360603031     0.497517283416    -0.130402331911    12.000000000000
         C           -0.416801558291    -0.873834348224     0.254089154278    12.000000000000
         C            1.068822983335    -0.721587913706    -0.095526314090    12.000000000000
         O            1.364539011141     0.682606307361     0.077494653144    15.994914619570
         O            0.233352039635     2.622704112459     0.095770559633    15.994914619570
         H           -1.290938055379     0.536927575755    -1.177030754607     1.007825032230
         H           -1.804531078042     0.848231664890     0.479617126892     1.007825032230
         H           -0.534878378525    -1.044962758436     1.325939708517     1.007825032230
         H           -0.881927581737    -1.704727170222    -0.275737847875     1.007825032230
         H            1.274951651540    -0.989512934396    -1.135530985926     1.007825032230
         H            1.739178977413    -1.281359954590     0.554084911925     1.007825032230

  Running in c1 symmetry.

  Rotational constants: A =      0.22912  B =      0.09556  C =      0.07107 [cm^-1]
  Rotational constants: A =   6868.86391  B =   2864.78585  C =   2130.61427 [MHz]
  Nuclear repulsion =  240.471478738421695

  Charge       = 0
  Multiplicity = 1
  Electrons    = 46
  Nalpha       = 23
  Nbeta        = 23

  ==> Algorithm <==

  SCF Algorithm Type is DF.
  DIIS enabled.
  MOM disabled.
  Fractional occupation disabled.
  Guess Type is SAD.
  Energy threshold   = 1.00e-06
  Density threshold  = 1.00e-06
  Integral threshold = 1.00e-12

  ==> Primary Basis <==

  Basis Set: DEF2-TZVP
    Blend: DEF2-TZVP
    Number of shells: 90
    Number of basis functions: 222
    Number of Cartesian functions: 252
    Spherical Harmonics?: true
    Max angular momentum: 3

  ==> DFT Potential <==

   => LibXC <=

    Version 7.1.2
    S. Lehtola, C. Steigemann, M. J. T. Oliveira, and M. A. L. Marques,  SoftwareX 7, 1–5 (2018) (10.1016/j.softx.2017.11.002)

   => Composite Functional: B3LYP-D3BJ2B <= 

    B3LYP-d3bj2b Hyb-GGA Exchange-Correlation Functional

    P. J. Stephens, F. J. Devlin, C. F. Chabalowski, and M. J. Frisch,  J. Phys. Chem. 98, 11623 (1994) (10.1021/j100096a001)

    Deriv               =              1
    GGA                 =           TRUE
    Meta                =          FALSE

    Exchange Hybrid     =           TRUE
    MP2 Hybrid          =          FALSE

   => Exchange Functionals <=

    0.0800   Slater exchange
    0.7200         Becke 88

   => Exact (HF) Exchange <=

    0.2000               HF 

   => Correlation Functionals <=

    0.1900   Vosko, Wilk & Nusair (VWN5_RPA)
    0.8100   Lee, Yang & Parr

   => LibXC Density Thresholds  <==

    XC_HYB_GGA_XC_B3LYP:  1.00E-15 

   => Molecular Quadrature <=

    Radial Scheme          =       TREUTLER
    Pruning Scheme         =           NONE
    Nuclear Scheme         =       TREUTLER

    Blocking Scheme        =         OCTREE
    BS radius alpha        =              1
    Pruning alpha          =              1
    Radial Points          =             75
    Spherical Points       =            302
    Total Points           =         254774
    Total Blocks           =           1905
    Max Points             =            256
    Max Functions          =            217
    Weights Tolerance      =       1.00E-15

   => Loading Basis Set <=

    Name: (DEF2-TZVP AUX)
    Role: JKFIT
    Keyword: DF_BASIS_SCF
    atoms 1-4  entry C          line   198 file /Users/hoyoun/micromamba/envs/psi4env/share/psi4/basis/def2-universal-jkfit.gbs 
    atoms 5-6  entry O          line   318 file /Users/hoyoun/micromamba/envs/psi4env/share/psi4/basis/def2-universal-jkfit.gbs 
    atoms 7-12 entry H          line    18 file /Users/hoyoun/micromamba/envs/psi4env/share/psi4/basis/def2-universal-jkfit.gbs 

  ==> Integral Setup <==

  DFHelper Memory: AOs need 0.215 GiB; user supplied 2.909 GiB. 
  SCF_SUBTYPE=INCORE selected. In-core MEM_DF algorithm will be used.
  Using in-core AOs.

  ==> MemDFJK: Density-Fitted J/K Matrices <==

    J tasked:                   Yes
    K tasked:                   Yes
    wK tasked:                   No
    OpenMP threads:               1
    Memory [MiB]:              2979
    Algorithm:                 Core
    Schwarz Cutoff:           1E-12
    Mask sparsity (%):       1.8546
    Fitting Condition:        1E-10

   => Auxiliary Basis Set <=

  Basis Set: (DEF2-TZVP AUX)
    Blend: DEF2-UNIVERSAL-JKFIT
    Number of shells: 186
    Number of basis functions: 562
    Number of Cartesian functions: 662
    Spherical Harmonics?: true
    Max angular momentum: 4

  Cached 100.0% of DFT collocation blocks in 1.281 [GiB].

  Minimum eigenvalue in the overlap matrix is 1.7652431721E-04.
  Reciprocal condition number of the overlap matrix is 1.8298286227E-05.
    Using symmetric orthogonalization.

  ==> Pre-Iterations <==

  SCF Guess: Superposition of Atomic Densities via on-the-fly atomic UHF (no occupation information).

   -------------------------
    Irrep   Nso     Nmo    
   -------------------------
     A        222     222 
   -------------------------
    Total     222     222
   -------------------------

  ==> Iterations <==

                           Total Energy        Delta E     RMS |[F,P]|

   @DF-RKS iter SAD:  -306.16747872247061   -3.06167e+02   0.00000e+00 
   @DF-RKS iter   1:  -306.18687124108732   -1.93925e-02   4.52559e-03 ADIIS/DIIS
   @DF-RKS iter   2:  -305.91002876511726    2.76842e-01   5.70809e-03 ADIIS/DIIS
   @DF-RKS iter   3:  -306.61973478612271   -7.09706e-01   9.32853e-04 ADIIS/DIIS
   @DF-RKS iter   4:  -306.62946976082196   -9.73497e-03   5.53601e-04 ADIIS/DIIS
   @DF-RKS iter   5:  -306.63512740897909   -5.65765e-03   9.46049e-05 DIIS
   @DF-RKS iter   6:  -306.63525183628286   -1.24427e-04   5.13240e-05 DIIS
   @DF-RKS iter   7:  -306.63529875254949   -4.69163e-05   6.20818e-06 DIIS
   @DF-RKS iter   8:  -306.63529927285396   -5.20304e-07   2.91238e-06 DIIS
   @DF-RKS iter   9:  -306.63529946302168   -1.90168e-07   2.79836e-07 DIIS
  Energy and wave function converged.


  ==> Post-Iterations <==

   Electrons on quadrature grid:
      Ntotal   =   46.0000032645 ; deviation = 3.265e-06 

    Orbital Energies [Eh]
    ---------------------

    Doubly Occupied:                                                      

       1A    -19.174000     2A    -19.113190     3A    -10.301928  
       4A    -10.245547     5A    -10.200344     6A    -10.200017  
       7A     -1.106639     8A     -1.029649     9A     -0.817282  
      10A     -0.740506    11A     -0.638397    12A     -0.569656  
      13A     -0.529689    14A     -0.509916    15A     -0.463882  
      16A     -0.449008    17A     -0.431697    18A     -0.415619  
      19A     -0.387410    20A     -0.367403    21A     -0.360663  
      22A     -0.307590    23A     -0.278842  

    Virtual:                                                              

      24A     -0.001822    25A      0.018225    26A      0.051189  
      27A      0.055857    28A      0.069010    29A      0.097547  
      30A      0.112729    31A      0.115268    32A      0.138669  
      33A      0.152542    34A      0.158720    35A      0.176358  
      36A      0.181799    37A      0.200290    38A      0.240622  
      39A      0.260220    40A      0.272149    41A      0.281241  
      42A      0.306617    43A      0.332541    44A      0.340785  
      45A      0.363678    46A      0.376392    47A      0.390806  
      48A      0.394752    49A      0.397769    50A      0.408745  
      51A      0.412275    52A      0.427519    53A      0.432400  
      54A      0.443961    55A      0.475569    56A      0.519633  
      57A      0.538020    58A      0.541100    59A      0.568429  
      60A      0.585458    61A      0.626713    62A      0.631342  
      63A      0.643830    64A      0.710481    65A      0.753253  
      66A      0.766356    67A      0.792818    68A      0.818244  
      69A      0.837332    70A      0.884905    71A      0.891879  
      72A      0.899732    73A      0.934097    74A      0.954720  
      75A      0.976122    76A      1.016091    77A      1.021502  
      78A      1.045649    79A      1.063877    80A      1.090567  
      81A      1.104803    82A      1.141352    83A      1.191481  
      84A      1.253912    85A      1.280599    86A      1.368646  
      87A      1.401751    88A      1.419978    89A      1.455524  
      90A      1.500584    91A      1.510335    92A      1.529896  
      93A      1.556323    94A      1.556728    95A      1.594968  
      96A      1.601570    97A      1.627201    98A      1.707995  
      99A      1.727595   100A      1.741572   101A      1.759818  
     102A      1.831632   103A      1.840635   104A      1.862618  
     105A      1.870848   106A      1.884646   107A      1.906824  
     108A      1.941260   109A      1.998452   110A      2.009572  
     111A      2.046536   112A      2.107952   113A      2.116234  
     114A      2.156131   115A      2.191663   116A      2.199293  
     117A      2.236268   118A      2.250296   119A      2.284654  
     120A      2.334620   121A      2.354143   122A      2.382634  
     123A      2.424972   124A      2.454695   125A      2.490497  
     126A      2.508400   127A      2.560228   128A      2.564992  
     129A      2.579955   130A      2.604913   131A      2.662860  
     132A      2.689780   133A      2.693868   134A      2.718174  
     135A      2.749544   136A      2.770196   137A      2.793278  
     138A      2.839365   139A      2.875129   140A      2.923943  
     141A      2.939282   142A      2.977201   143A      2.994552  
     144A      3.011018   145A      3.017539   146A      3.049306  
     147A      3.065476   148A      3.082244   149A      3.102347  
     150A      3.153249   151A      3.174425   152A      3.196398  
     153A      3.210941   154A      3.271512   155A      3.281437  
     156A      3.293990   157A      3.302720   158A      3.309217  
     159A      3.330179   160A      3.393814   161A      3.426036  
     162A      3.453745   163A      3.457672   164A      3.468115  
     165A      3.528862   166A      3.566599   167A      3.620832  
     168A      3.665349   169A      3.705351   170A      3.756768  
     171A      3.782422   172A      3.836264   173A      3.894473  
     174A      3.922282   175A      3.955951   176A      4.008292  
     177A      4.020600   178A      4.096697   179A      4.158870  
     180A      4.160732   181A      4.227629   182A      4.283530  
     183A      4.349700   184A      4.385549   185A      4.416308  
     186A      4.517023   187A      4.595656   188A      4.620509  
     189A      4.717605   190A      4.766935   191A      4.797870  
     192A      4.857163   193A      5.176626   194A      5.199146  
     195A      5.287196   196A      5.431301   197A      5.511078  
     198A      5.610962   199A      5.718922   200A      5.780917  
     201A      5.910797   202A      6.009817   203A      6.197443  
     204A      6.211658   205A      6.363379   206A      6.411453  
     207A      6.476039   208A      6.667468   209A      6.757714  
     210A      6.796433   211A      6.814482   212A      6.821703  
     213A      7.007883   214A      7.084336   215A      7.168390  
     216A      7.355261   217A     22.278161   218A     22.413566  
     219A     22.450917   220A     23.224765   221A     43.868014  
     222A     44.041933  

    Final Occupation by Irrep:
              A 
    DOCC [    23 ]
    NA   [    23 ]
    NB   [    23 ]

  @DF-RKS Final Energy:  -306.63529946302168

   => Energetics <=

    Nuclear Repulsion Energy =            240.4714787384216947
    One-Electron Energy =                -892.9590032500743746
    Two-Electron Energy =                 379.1943685824360841
    DFT Exchange-Correlation Energy =     -33.3267573734602180
    Empirical Dispersion Energy =          -0.0153861603447812
    VV10 Nonlocal Energy =                  0.0000000000000000
    Total Energy =                       -306.6352994630216813

Computation Completed


Properties will be evaluated at   0.000000,   0.000000,   0.000000 [a0]

Properties computed using the SCF density matrix


 Multipole Moments:

 ------------------------------------------------------------------------------------
     Multipole            Electronic (a.u.)      Nuclear  (a.u.)        Total (a.u.)
 ------------------------------------------------------------------------------------

 L = 1.  Multiply by 2.5417464519 to convert [e a0] to [Debye]
 Dipole X            :        -20.7723316           20.1945666           -0.5777650
 Dipole Y            :        -48.5910106           46.8418485           -1.7491621
 Dipole Z            :         -2.9658794            2.8153511           -0.1505283
 Magnitude           :                                                    1.8482530

 ------------------------------------------------------------------------------------

*** tstop() called on choehoyun-ui-MacBookAir.local at Sun Aug  9 01:15:10 2026
Module time:
	user time   =      27.13 seconds =       0.45 minutes
	system time =       8.06 seconds =       0.13 minutes
	total time  =         67 seconds =       1.12 minutes
Total time:
	user time   =      27.13 seconds =       0.45 minutes
	system time =       8.06 seconds =       0.13 minutes
	total time  =         67 seconds =       1.12 minutes

    Psi4 stopped on: Sunday, 09 August 2026 01:15AM
    Psi4 wall time for execution: 0:01:07.49

*** Psi4 exiting successfully. Buy a developer a beer!
