
    -----------------------------------------------------------------------
          Psi4: An Open-Source Ab Initio Electronic Structure Package
                               Psi4 1.11 release

                         Git: Rev {} zzzzzzz 


    D. G. A. Smith, L. A. Burns, A. C. Simmonett, R. M. Parrish,
    M. C. Schieber, R. Galvelis, P. Kraus, H. Kruse, R. Di Remigio,
    A. Alenaizan, A. M. James, S. Lehtola, J. P. Misiewicz, M. Scheurer,
    R. A. Shaw, J. B. Schriber, Y. Xie, Z. L. Glick, D. A. Sirianni,
    J. S. O'Brien, J. M. Waldrop, A. Kumar, E. G. Hohenstein,
    B. P. Pritchard, B. R. Brooks, H. F. Schaefer III, A. Yu. Sokolov,
    K. Patkowski, A. E. DePrince III, U. Bozkaya, R. A. King,
    F. A. Evangelista, J. M. Turney, T. D. Crawford, C. D. Sherrill,
    J. Chem. Phys. 152(18) 184108 (2020). https://doi.org/10.1063/5.0006002

                            Additional Code Authors
    E. T. Seidl, C. L. Janssen, E. F. Valeev, M. L. Leininger,
    J. F. Gonthier, R. M. Richard, H. R. McAlexander, M. Saitow, X. Wang,
    P. Verma, M. H. Lechner, A. Jiang, S. Behnle, A. G. Heide,
    M. F. Herbst, D. L. Poole, T. Győri, E. C. Mitchell, J. P. Pederson,
    and A. M. Wallace

             Previous Authors, Complete List of Code Contributors,
                       and Citations for Specific Modules
    https://github.com/psi4/psi4/blob/master/codemeta.json
    https://github.com/psi4/psi4/graphs/contributors
    https://psicode.org/psi4manual/master/introduction.html#citing-psifour

    -----------------------------------------------------------------------


    Psi4 started on: Sunday, 09 August 2026 03:00AM

    Process ID: 51542
    Host:       choehoyun-ui-MacBookAir.local
    PSIDATADIR: /Users/hoyoun/micromamba/envs/psi4env/share/psi4
    Memory:     500.0 MiB
    Threads:    8
    Addons:     a̶d̶c̶c̶, a̶m̶b̶i̶t̶, b̶s̶e̶, c̶c̶t̶3̶, c̶f̶o̶u̶r̶, c̶h̶e̶m̶p̶s̶2̶, c̶p̶p̶e̶, d̶d̶x̶, dftd3,
                d̶f̶t̶d̶4̶, dkh, ecpint, einsums, f̶o̶r̶t̶e̶, gauxc, g̶c̶p̶, g̶d̶m̶a̶,
                g̶e̶o̶m̶e̶t̶r̶i̶c̶, g̶p̶u̶_̶d̶f̶c̶c̶, i̶n̶t̶e̶g̶r̶a̶t̶o̶r̶x̶x̶, i̶p̶i̶,
                l̶i̶b̶e̶f̶p̶, m̶d̶i̶, m̶p̶2̶d̶, m̶r̶c̶c̶, ooo, o̶p̶e̶n̶f̶e̶r̶m̶i̶o̶n̶p̶s̶i̶4̶,
                pcmsolver, p̶s̶i̶4̶f̶o̶c̶k̶c̶i̶, p̶s̶i̶x̶a̶s̶, p̶y̶e̶i̶n̶s̶u̶m̶s̶, r̶e̶s̶p̶,
                s̶i̶m̶i̶n̶t̶, s̶n̶s̶m̶p̶2̶, v̶2̶r̶d̶m̶_̶c̶a̶s̶s̶c̶f̶

  ==> Input File <==

--------------------------------------------------------------------------
memory 3 GB
molecule mol {
0 1
N 1.06312764090610 0.57758999402385 -0.08025714735521
C -0.14704602082063 0.67771594338246 0.71468174461004
C -1.26507830931909 -0.16787812086558 0.09405134749404
O -2.21782838826692 0.34926927797360 -0.49665258124642
C -0.56242130155039 2.13843571318439 0.76575837091722
O -0.70030428054290 2.66128269922053 -0.54404162978349
H 1.18338665133034 1.27888382949308 -0.79447709963210
H 0.07715306287147 0.30049359161802 1.71348076012163
H -1.48860787400853 2.23000490950914 1.33572255767360
H 0.21345014651593 2.71925277253432 1.26114648651300
H -1.43272764956304 2.14531135067173 -0.91679541436768
N -1.09283867284789 -1.49250693929790 0.24977242574295
H -0.20587046913535 -1.78491822246388 0.64688816407685
C -1.98199807565069 -2.45771025722108 -0.36091365307981
H -1.55195078658743 -2.87733855486716 -1.26979747352542
H -2.19065989100506 -3.26424760121344 0.33706248280110
H -2.90663544912961 -1.94899702508782 -0.61381312491066
C 1.92346489875905 -0.45869921857003 0.03460532779246
O 1.72394305500971 -1.39667532055898 0.81020970009198
C 3.15648281669896 -0.38794312199372 -0.82777980587730
H 4.02581014548005 -0.31033032353510 -0.17849947475883
H 3.14817079546534 0.45371704248383 -1.51522196091834
H 3.24389096420333 -1.31581942861594 -1.38691400684864
units angstrom
no_reorient
no_com
}
set basis def2-TZVP
set scf_type df
set freeze_core true
set e_convergence 8
energy('b3lyp-d3bj')
--------------------------------------------------------------------------

  Memory set to   2.794 GiB by Python driver.

Scratch directory: /Users/hoyoun/Documents/Yonsei_AX_Camp/(진짜_이게_최종)/calibration/dft_work/_scratch/SER_xad/
   => Libint2 <=

    Primary   basis highest AM E, G, H:  7, 6, 3
    Auxiliary basis highest AM E, G, H:  7, 7, 4
    Onebody   basis highest AM E, G, H:  -, -, -
    Solid Harmonics ordering:            Gaussian

*** tstart() called on choehoyun-ui-MacBookAir.local
*** at Sun Aug  9 03:00:48 2026

   => Loading Basis Set <=

    Name: DEF2-TZVP
    Role: ORBITAL
    Keyword: BASIS
    atoms 1, 12                  entry N          line   156 file /Users/hoyoun/micromamba/envs/psi4env/share/psi4/basis/def2-tzvp.gbs 
    atoms 2-3, 5, 14, 18, 20     entry C          line   123 file /Users/hoyoun/micromamba/envs/psi4env/share/psi4/basis/def2-tzvp.gbs 
    atoms 4, 6, 19               entry O          line   189 file /Users/hoyoun/micromamba/envs/psi4env/share/psi4/basis/def2-tzvp.gbs 
    atoms 7-11, 13, 15-17, 21-23 entry H          line    15 file /Users/hoyoun/micromamba/envs/psi4env/share/psi4/basis/def2-tzvp.gbs 

   => B3LYP-D3(BJ): Empirical Dispersion <=

    Grimme's -D3 (BJ-damping) Dispersion Correction
    Grimme S.; Ehrlich S.; Goerigk L. (2011), J. Comput. Chem., 32: 1456

        s6 =       1.000000
        s8 =       1.988900
        a1 =       0.398100
        a2 =       4.421100


         ---------------------------------------------------------
                                   SCF
               by Justin Turney, Rob Parrish, Andy Simmonett
                          and Daniel G. A. Smith
                              RKS Reference
                        8 Threads,   2861 MiB Core
         ---------------------------------------------------------

  ==> Geometry <==

    Molecular point group: c1
    Full point group: C1

    Geometry (in Angstrom), charge = 0, multiplicity = 1:

       Center              X                  Y                   Z               Mass       
    ------------   -----------------  -----------------  -----------------  -----------------
         N            1.063127640906     0.577589994024    -0.080257147355    14.003074004430
         C           -0.147046020821     0.677715943382     0.714681744610    12.000000000000
         C           -1.265078309319    -0.167878120866     0.094051347494    12.000000000000
         O           -2.217828388267     0.349269277974    -0.496652581246    15.994914619570
         C           -0.562421301550     2.138435713184     0.765758370917    12.000000000000
         O           -0.700304280543     2.661282699221    -0.544041629783    15.994914619570
         H            1.183386651330     1.278883829493    -0.794477099632     1.007825032230
         H            0.077153062871     0.300493591618     1.713480760122     1.007825032230
         H           -1.488607874009     2.230004909509     1.335722557674     1.007825032230
         H            0.213450146516     2.719252772534     1.261146486513     1.007825032230
         H           -1.432727649563     2.145311350672    -0.916795414368     1.007825032230
         N           -1.092838672848    -1.492506939298     0.249772425743    14.003074004430
         H           -0.205870469135    -1.784918222464     0.646888164077     1.007825032230
         C           -1.981998075651    -2.457710257221    -0.360913653080    12.000000000000
         H           -1.551950786587    -2.877338554867    -1.269797473525     1.007825032230
         H           -2.190659891005    -3.264247601213     0.337062482801     1.007825032230
         H           -2.906635449130    -1.948997025088    -0.613813124911     1.007825032230
         C            1.923464898759    -0.458699218570     0.034605327792    12.000000000000
         O            1.723943055010    -1.396675320559     0.810209700092    15.994914619570
         C            3.156482816699    -0.387943121994    -0.827779805877    12.000000000000
         H            4.025810145480    -0.310330323535    -0.178499474759     1.007825032230
         H            3.148170795465     0.453717042484    -1.515221960918     1.007825032230
         H            3.243890964203    -1.315819428616    -1.386914006849     1.007825032230

  Running in c1 symmetry.

  Rotational constants: A =      0.04008  B =      0.03233  C =      0.02040 [cm^-1]
  Rotational constants: A =   1201.43841  B =    969.24475  C =    611.56563 [MHz]
  Nuclear repulsion =  671.237407005326531

  Charge       = 0
  Multiplicity = 1
  Electrons    = 86
  Nalpha       = 43
  Nbeta        = 43

  ==> Algorithm <==

  SCF Algorithm Type is DF.
  DIIS enabled.
  MOM disabled.
  Fractional occupation disabled.
  Guess Type is SAD.
  Energy threshold   = 1.00e-08
  Density threshold  = 1.00e-06
  Integral threshold = 1.00e-12

  ==> Primary Basis <==

  Basis Set: DEF2-TZVP
    Blend: DEF2-TZVP
    Number of shells: 169
    Number of basis functions: 413
    Number of Cartesian functions: 468
    Spherical Harmonics?: true
    Max angular momentum: 3

  ==> DFT Potential <==

   => LibXC <=

    Version 7.1.2
    S. Lehtola, C. Steigemann, M. J. T. Oliveira, and M. A. L. Marques,  SoftwareX 7, 1–5 (2018) (10.1016/j.softx.2017.11.002)

   => Composite Functional: B3LYP-D3BJ2B <= 

    B3LYP-d3bj2b Hyb-GGA Exchange-Correlation Functional

    P. J. Stephens, F. J. Devlin, C. F. Chabalowski, and M. J. Frisch,  J. Phys. Chem. 98, 11623 (1994) (10.1021/j100096a001)

    Deriv               =              1
    GGA                 =           TRUE
    Meta                =          FALSE

    Exchange Hybrid     =           TRUE
    MP2 Hybrid          =          FALSE

   => Exchange Functionals <=

    0.0800   Slater exchange
    0.7200         Becke 88

   => Exact (HF) Exchange <=

    0.2000               HF 

   => Correlation Functionals <=

    0.1900   Vosko, Wilk & Nusair (VWN5_RPA)
    0.8100   Lee, Yang & Parr

   => LibXC Density Thresholds  <==

    XC_HYB_GGA_XC_B3LYP:  1.00E-15 

   => Molecular Quadrature <=

    Radial Scheme          =       TREUTLER
    Pruning Scheme         =           NONE
    Nuclear Scheme         =       TREUTLER

    Blocking Scheme        =         OCTREE
    BS radius alpha        =              1
    Pruning alpha          =              1
    Radial Points          =             75
    Spherical Points       =            302
    Total Points           =         481471
    Total Blocks           =           3514
    Max Points             =            256
    Max Functions          =            358
    Weights Tolerance      =       1.00E-15

   => Loading Basis Set <=

    Name: (DEF2-TZVP AUX)
    Role: JKFIT
    Keyword: DF_BASIS_SCF
    atoms 1, 12                  entry N          line   258 file /Users/hoyoun/micromamba/envs/psi4env/share/psi4/basis/def2-universal-jkfit.gbs 
    atoms 2-3, 5, 14, 18, 20     entry C          line   198 file /Users/hoyoun/micromamba/envs/psi4env/share/psi4/basis/def2-universal-jkfit.gbs 
    atoms 4, 6, 19               entry O          line   318 file /Users/hoyoun/micromamba/envs/psi4env/share/psi4/basis/def2-universal-jkfit.gbs 
    atoms 7-11, 13, 15-17, 21-23 entry H          line    18 file /Users/hoyoun/micromamba/envs/psi4env/share/psi4/basis/def2-universal-jkfit.gbs 

  ==> Integral Setup <==

  DFHelper Memory: AOs need 1.219 GiB; user supplied 1.219 GiB. 
  SCF_SUBTYPE=INCORE selected. In-core MEM_DF algorithm will be used.
  Using in-core AOs.

  ==> MemDFJK: Density-Fitted J/K Matrices <==

    J tasked:                   Yes
    K tasked:                   Yes
    wK tasked:                   No
    OpenMP threads:               8
    Memory [MiB]:              1247
    Algorithm:                 Core
    Schwarz Cutoff:           1E-12
    Mask sparsity (%):      12.7045
    Fitting Condition:        1E-10

   => Auxiliary Basis Set <=

  Basis Set: (DEF2-TZVP AUX)
    Blend: DEF2-UNIVERSAL-JKFIT
    Number of shells: 347
    Number of basis functions: 1051
    Number of Cartesian functions: 1239
    Spherical Harmonics?: true
    Max angular momentum: 4

  Cached 25.0% of DFT collocation blocks in 0.837 [GiB].

  Minimum eigenvalue in the overlap matrix is 8.5903151817E-05.
  Reciprocal condition number of the overlap matrix is 8.6897840785E-06.
    Using symmetric orthogonalization.

  ==> Pre-Iterations <==

  SCF Guess: Superposition of Atomic Densities via on-the-fly atomic UHF (no occupation information).

   -------------------------
    Irrep   Nso     Nmo    
   -------------------------
     A        413     413 
   -------------------------
    Total     413     413
   -------------------------

  ==> Iterations <==

                           Total Energy        Delta E     RMS |[F,P]|

   @DF-RKS iter SAD:  -570.57414130768200   -5.70574e+02   0.00000e+00 
   @DF-RKS iter   1:  -570.48655237944604    8.75889e-02   3.47238e-03 ADIIS/DIIS
   @DF-RKS iter   2:  -570.02199575889131    4.64557e-01   4.27974e-03 ADIIS/DIIS
   @DF-RKS iter   3:  -571.32505958726563   -1.30306e+00   6.48698e-04 ADIIS/DIIS
   @DF-RKS iter   4:  -571.34625158439917   -2.11920e-02   2.85596e-04 ADIIS/DIIS
   @DF-RKS iter   5:  -571.35088036168781   -4.62878e-03   1.25966e-04 ADIIS/DIIS
   @DF-RKS iter   6:  -571.35189985075419   -1.01949e-03   2.52786e-05 DIIS
   @DF-RKS iter   7:  -571.35193881680937   -3.89661e-05   5.64188e-06 DIIS
   @DF-RKS iter   8:  -571.35194044789648   -1.63109e-06   2.69639e-06 DIIS
   @DF-RKS iter   9:  -571.35194083277247   -3.84876e-07   1.03485e-06 DIIS
   @DF-RKS iter  10:  -571.35194089267793   -5.99055e-08   3.45443e-07 DIIS
   @DF-RKS iter  11:  -571.35194090033519   -7.65726e-09   8.30130e-08 DIIS
  Energy and wave function converged.


  ==> Post-Iterations <==

   Electrons on quadrature grid:
      Ntotal   =   85.9998472560 ; deviation = -1.527e-04 

    Orbital Energies [Eh]
    ---------------------

    Doubly Occupied:                                                      

       1A    -19.125438     2A    -19.106550     3A    -19.104285  
       4A    -14.359609     5A    -14.344798     6A    -10.290287  
       7A    -10.279878     8A    -10.229331     9A    -10.226866  
      10A    -10.204513    11A    -10.188537    12A     -1.058907  
      13A     -1.047612    14A     -1.025515    15A     -0.946610  
      16A     -0.930901    17A     -0.792978    18A     -0.742778  
      19A     -0.719651    20A     -0.647178    21A     -0.615321  
      22A     -0.590301    23A     -0.553485    24A     -0.522233  
      25A     -0.505224    26A     -0.490917    27A     -0.476236  
      28A     -0.461731    29A     -0.457715    30A     -0.443209  
      31A     -0.433267    32A     -0.423066    33A     -0.418355  
      34A     -0.408552    35A     -0.398815    36A     -0.381450  
      37A     -0.379601    38A     -0.350557    39A     -0.303384  
      40A     -0.288302    41A     -0.279130    42A     -0.269000  
      43A     -0.259293  

    Virtual:                                                              

      44A     -0.007682    45A      0.008027    46A      0.024482  
      47A      0.038771    48A      0.056396    49A      0.062491  
      50A      0.082482    51A      0.087134    52A      0.096030  
      53A      0.098200    54A      0.109858    55A      0.116833  
      56A      0.121459    57A      0.123486    58A      0.133885  
      59A      0.150540    60A      0.160581    61A      0.164687  
      62A      0.168014    63A      0.176682    64A      0.196720  
      65A      0.199207    66A      0.204970    67A      0.217761  
      68A      0.220647    69A      0.246933    70A      0.251949  
      71A      0.272053    72A      0.283135    73A      0.291143  
      74A      0.300409    75A      0.306695    76A      0.332341  
      77A      0.337569    78A      0.340272    79A      0.357042  
      80A      0.361223    81A      0.370057    82A      0.376369  
      83A      0.383039    84A      0.389253    85A      0.393072  
      86A      0.394722    87A      0.407234    88A      0.414899  
      89A      0.422629    90A      0.425363    91A      0.432147  
      92A      0.448034    93A      0.449506    94A      0.456188  
      95A      0.463565    96A      0.469434    97A      0.471078  
      98A      0.495515    99A      0.497407   100A      0.508669  
     101A      0.519935   102A      0.523329   103A      0.537168  
     104A      0.543511   105A      0.552962   106A      0.561203  
     107A      0.577460   108A      0.594270   109A      0.608936  
     110A      0.624043   111A      0.627794   112A      0.635049  
     113A      0.654158   114A      0.665767   115A      0.676187  
     116A      0.705437   117A      0.716829   118A      0.730992  
     119A      0.737290   120A      0.760940   121A      0.778151  
     122A      0.788883   123A      0.804568   124A      0.831728  
     125A      0.833193   126A      0.848343   127A      0.860786  
     128A      0.875198   129A      0.882012   130A      0.903395  
     131A      0.911400   132A      0.922754   133A      0.948756  
     134A      0.953958   135A      0.963953   136A      0.987315  
     137A      0.999963   138A      1.019303   139A      1.044634  
     140A      1.051550   141A      1.068045   142A      1.076320  
     143A      1.091784   144A      1.112491   145A      1.135260  
     146A      1.180041   147A      1.185906   148A      1.199994  
     149A      1.240176   150A      1.268272   151A      1.284820  
     152A      1.305951   153A      1.313352   154A      1.360136  
     155A      1.364656   156A      1.383070   157A      1.405808  
     158A      1.421959   159A      1.435443   160A      1.445136  
     161A      1.458279   162A      1.467218   163A      1.478146  
     164A      1.489898   165A      1.495757   166A      1.503008  
     167A      1.513721   168A      1.514806   169A      1.524696  
     170A      1.537453   171A      1.546434   172A      1.556567  
     173A      1.563155   174A      1.581699   175A      1.590739  
     176A      1.601990   177A      1.621637   178A      1.623126  
     179A      1.643160   180A      1.666988   181A      1.681312  
     182A      1.706458   183A      1.723611   184A      1.738090  
     185A      1.750520   186A      1.767222   187A      1.777728  
     188A      1.812009   189A      1.831663   190A      1.839414  
     191A      1.851011   192A      1.872793   193A      1.875597  
     194A      1.926834   195A      1.938899   196A      1.944913  
     197A      1.962305   198A      1.969494   199A      1.987331  
     200A      1.998980   201A      2.009887   202A      2.017277  
     203A      2.024623   204A      2.051813   205A      2.080000  
     206A      2.110801   207A      2.130129   208A      2.149950  
     209A      2.162296   210A      2.180850   211A      2.193658  
     212A      2.205712   213A      2.212625   214A      2.232403  
     215A      2.255280   216A      2.265363   217A      2.273030  
     218A      2.290901   219A      2.304021   220A      2.308423  
     221A      2.319642   222A      2.341363   223A      2.344059  
     224A      2.361630   225A      2.370771   226A      2.386120  
     227A      2.409108   228A      2.449580   229A      2.461174  
     230A      2.470144   231A      2.484709   232A      2.512360  
     233A      2.530725   234A      2.535761   235A      2.555391  
     236A      2.558022   237A      2.566016   238A      2.574430  
     239A      2.596812   240A      2.606994   241A      2.636048  
     242A      2.645869   243A      2.659390   244A      2.682061  
     245A      2.697452   246A      2.733312   247A      2.740929  
     248A      2.758983   249A      2.769171   250A      2.787354  
     251A      2.814030   252A      2.828000   253A      2.844788  
     254A      2.852385   255A      2.873800   256A      2.888849  
     257A      2.903266   258A      2.927798   259A      2.940693  
     260A      2.953097   261A      2.967303   262A      2.982439  
     263A      3.014627   264A      3.022842   265A      3.046284  
     266A      3.053366   267A      3.065786   268A      3.077569  
     269A      3.088738   270A      3.101247   271A      3.120945  
     272A      3.124367   273A      3.140737   274A      3.150733  
     275A      3.168900   276A      3.179148   277A      3.181022  
     278A      3.209328   279A      3.220117   280A      3.238180  
     281A      3.256608   282A      3.264034   283A      3.274681  
     284A      3.280436   285A      3.308759   286A      3.311937  
     287A      3.327275   288A      3.338916   289A      3.338991  
     290A      3.366424   291A      3.377987   292A      3.395918  
     293A      3.408589   294A      3.434244   295A      3.443872  
     296A      3.454628   297A      3.478969   298A      3.487569  
     299A      3.492310   300A      3.536614   301A      3.545288  
     302A      3.594647   303A      3.598527   304A      3.622145  
     305A      3.623012   306A      3.651381   307A      3.664567  
     308A      3.695556   309A      3.730335   310A      3.766657  
     311A      3.776435   312A      3.793356   313A      3.835509  
     314A      3.852463   315A      3.881700   316A      3.899026  
     317A      3.916739   318A      3.942828   319A      3.983944  
     320A      4.000903   321A      4.046102   322A      4.065538  
     323A      4.112590   324A      4.132927   325A      4.145244  
     326A      4.167307   327A      4.209390   328A      4.226370  
     329A      4.287632   330A      4.309601   331A      4.330619  
     332A      4.374108   333A      4.385226   334A      4.414241  
     335A      4.419420   336A      4.452071   337A      4.496574  
     338A      4.536941   339A      4.547334   340A      4.632551  
     341A      4.645602   342A      4.717203   343A      4.728010  
     344A      4.751525   345A      4.793623   346A      4.830755  
     347A      4.858485   348A      4.873565   349A      5.020732  
     350A      5.048647   351A      5.060622   352A      5.068613  
     353A      5.099629   354A      5.139061   355A      5.165928  
     356A      5.177946   357A      5.196372   358A      5.219513  
     359A      5.254322   360A      5.271441   361A      5.277238  
     362A      5.287832   363A      5.306577   364A      5.385754  
     365A      5.407959   366A      5.428651   367A      5.453398  
     368A      5.486807   369A      5.511959   370A      5.572788  
     371A      5.607839   372A      5.639790   373A      5.670459  
     374A      5.695332   375A      5.778367   376A      5.796025  
     377A      5.829620   378A      5.893858   379A      5.926029  
     380A      5.957554   381A      6.082931   382A      6.137945  
     383A      6.256500   384A      6.299556   385A      6.322083  
     386A      6.419872   387A      6.480891   388A      6.486123  
     389A      6.546398   390A      6.560330   391A      6.685936  
     392A      6.694735   393A      6.738402   394A      6.793786  
     395A      6.824900   396A      6.836544   397A      6.966936  
     398A      7.060549   399A      7.074852   400A      7.084403  
     401A      7.117732   402A      7.158106   403A     22.309404  
     404A     22.398825   405A     22.456874   406A     22.699205  
     407A     23.277311   408A     23.364326   409A     32.408497  
     410A     32.538530   411A     43.816843   412A     43.887749  
     413A     43.931548  

    Final Occupation by Irrep:
              A 
    DOCC [    43 ]
    NA   [    43 ]
    NB   [    43 ]

  @DF-RKS Final Energy:  -571.35194090033519

   => Energetics <=

    Nuclear Repulsion Energy =            671.2374070053265314
    One-Electron Energy =               -2110.2742235216960580
    Two-Electron Energy =                 929.8968158626987588
    DFT Exchange-Correlation Energy =     -62.1751616242441685
    Empirical Dispersion Energy =          -0.0367786224202083
    VV10 Nonlocal Energy =                  0.0000000000000000
    Total Energy =                       -571.3519409003351939

Computation Completed


Properties will be evaluated at   0.000000,   0.000000,   0.000000 [a0]

Properties computed using the SCF density matrix


 Multipole Moments:

 ------------------------------------------------------------------------------------
     Multipole            Electronic (a.u.)      Nuclear  (a.u.)        Total (a.u.)
 ------------------------------------------------------------------------------------

 L = 1.  Multiply by 2.5417464519 to convert [e a0] to [Debye]
 Dipole X            :          2.3903489           -1.7114502            0.6788987
 Dipole Y            :         -0.7263323            0.3706369           -0.3556954
 Dipole Z            :         -0.9920605            0.9145004           -0.0775601
 Magnitude           :                                                    0.7703495

 ------------------------------------------------------------------------------------

*** tstop() called on choehoyun-ui-MacBookAir.local at Sun Aug  9 03:01:09 2026
Module time:
	user time   =     139.81 seconds =       2.33 minutes
	system time =       2.72 seconds =       0.05 minutes
	total time  =         21 seconds =       0.35 minutes
Total time:
	user time   =     139.81 seconds =       2.33 minutes
	system time =       2.72 seconds =       0.05 minutes
	total time  =         21 seconds =       0.35 minutes

    Psi4 stopped on: Sunday, 09 August 2026 03:01AM
    Psi4 wall time for execution: 0:00:21.04

*** Psi4 exiting successfully. Buy a developer a beer!
