
    -----------------------------------------------------------------------
          Psi4: An Open-Source Ab Initio Electronic Structure Package
                               Psi4 1.11 release

                         Git: Rev {} zzzzzzz 


    D. G. A. Smith, L. A. Burns, A. C. Simmonett, R. M. Parrish,
    M. C. Schieber, R. Galvelis, P. Kraus, H. Kruse, R. Di Remigio,
    A. Alenaizan, A. M. James, S. Lehtola, J. P. Misiewicz, M. Scheurer,
    R. A. Shaw, J. B. Schriber, Y. Xie, Z. L. Glick, D. A. Sirianni,
    J. S. O'Brien, J. M. Waldrop, A. Kumar, E. G. Hohenstein,
    B. P. Pritchard, B. R. Brooks, H. F. Schaefer III, A. Yu. Sokolov,
    K. Patkowski, A. E. DePrince III, U. Bozkaya, R. A. King,
    F. A. Evangelista, J. M. Turney, T. D. Crawford, C. D. Sherrill,
    J. Chem. Phys. 152(18) 184108 (2020). https://doi.org/10.1063/5.0006002

                            Additional Code Authors
    E. T. Seidl, C. L. Janssen, E. F. Valeev, M. L. Leininger,
    J. F. Gonthier, R. M. Richard, H. R. McAlexander, M. Saitow, X. Wang,
    P. Verma, M. H. Lechner, A. Jiang, S. Behnle, A. G. Heide,
    M. F. Herbst, D. L. Poole, T. Győri, E. C. Mitchell, J. P. Pederson,
    and A. M. Wallace

             Previous Authors, Complete List of Code Contributors,
                       and Citations for Specific Modules
    https://github.com/psi4/psi4/blob/master/codemeta.json
    https://github.com/psi4/psi4/graphs/contributors
    https://psicode.org/psi4manual/master/introduction.html#citing-psifour

    -----------------------------------------------------------------------


    Psi4 started on: Sunday, 09 August 2026 04:17PM

    Process ID: 61612
    Host:       choehoyun-ui-MacBookAir.local
    PSIDATADIR: /Users/hoyoun/micromamba/envs/psi4env/share/psi4
    Memory:     500.0 MiB
    Threads:    8
    Addons:     a̶d̶c̶c̶, a̶m̶b̶i̶t̶, b̶s̶e̶, c̶c̶t̶3̶, c̶f̶o̶u̶r̶, c̶h̶e̶m̶p̶s̶2̶, c̶p̶p̶e̶, d̶d̶x̶, dftd3,
                d̶f̶t̶d̶4̶, dkh, ecpint, einsums, f̶o̶r̶t̶e̶, gauxc, g̶c̶p̶, g̶d̶m̶a̶,
                g̶e̶o̶m̶e̶t̶r̶i̶c̶, g̶p̶u̶_̶d̶f̶c̶c̶, i̶n̶t̶e̶g̶r̶a̶t̶o̶r̶x̶x̶, i̶p̶i̶,
                l̶i̶b̶e̶f̶p̶, m̶d̶i̶, m̶p̶2̶d̶, m̶r̶c̶c̶, ooo, o̶p̶e̶n̶f̶e̶r̶m̶i̶o̶n̶p̶s̶i̶4̶,
                pcmsolver, p̶s̶i̶4̶f̶o̶c̶k̶c̶i̶, p̶s̶i̶x̶a̶s̶, p̶y̶e̶i̶n̶s̶u̶m̶s̶, r̶e̶s̶p̶,
                s̶i̶m̶i̶n̶t̶, s̶n̶s̶m̶p̶2̶, v̶2̶r̶d̶m̶_̶c̶a̶s̶s̶c̶f̶

  ==> Input File <==

--------------------------------------------------------------------------
memory 3 GB
molecule mol {
0 1
C -0.38933397248121 0.34584897540710 0.00000000000000
C 0.27063098103844 1.54600189039922 0.64243695431995
C 0.27063098103844 1.54600189039922 -0.64243695431995
C 0.27063098103844 -0.97580993085460 0.00000000000000
C -0.36827897383267 -2.14104584801285 0.00000000000000
H -1.47732189528826 0.29493697882382 0.00000000000000
H 0.54030796140106 2.00431985759881 1.57612688801571
H 0.54030796140106 2.00431985759881 -1.57612688801571
H 1.35702790345615 -0.95739293193260 0.00000000000000
H -1.45060789724257 -2.19068784469046 0.00000000000000
H 0.16459998829856 -3.08147278123151 0.00000000000000
units angstrom
no_reorient
no_com
}
set basis def2-TZVP
set scf_type df
set freeze_core true
set e_convergence 8
energy('b3lyp-d3bj')
--------------------------------------------------------------------------

  Memory set to   2.794 GiB by Python driver.

Scratch directory: /Users/hoyoun/Documents/Yonsei_AX_Camp/(진짜_이게_최종)/calibration/dft_work/_scratch/P20/
   => Libint2 <=

    Primary   basis highest AM E, G, H:  7, 6, 3
    Auxiliary basis highest AM E, G, H:  7, 7, 4
    Onebody   basis highest AM E, G, H:  -, -, -
    Solid Harmonics ordering:            Gaussian

*** tstart() called on choehoyun-ui-MacBookAir.local
*** at Sun Aug  9 16:17:32 2026

   => Loading Basis Set <=

    Name: DEF2-TZVP
    Role: ORBITAL
    Keyword: BASIS
    atoms 1-5  entry C          line   123 file /Users/hoyoun/micromamba/envs/psi4env/share/psi4/basis/def2-tzvp.gbs 
    atoms 6-11 entry H          line    15 file /Users/hoyoun/micromamba/envs/psi4env/share/psi4/basis/def2-tzvp.gbs 

   => B3LYP-D3(BJ): Empirical Dispersion <=

    Grimme's -D3 (BJ-damping) Dispersion Correction
    Grimme S.; Ehrlich S.; Goerigk L. (2011), J. Comput. Chem., 32: 1456

        s6 =       1.000000
        s8 =       1.988900
        a1 =       0.398100
        a2 =       4.421100


         ---------------------------------------------------------
                                   SCF
               by Justin Turney, Rob Parrish, Andy Simmonett
                          and Daniel G. A. Smith
                              RKS Reference
                        8 Threads,   2861 MiB Core
         ---------------------------------------------------------

  ==> Geometry <==

    Molecular point group: cs
    Full point group: Cs

    Geometry (in Angstrom), charge = 0, multiplicity = 1:

       Center              X                  Y                   Z               Mass       
    ------------   -----------------  -----------------  -----------------  -----------------
         C           -0.389333972481     0.345848975407     0.000000000000    12.000000000000
         C            0.270630981038     1.546001890399     0.642436954320    12.000000000000
         C            0.270630981038     1.546001890399    -0.642436954320    12.000000000000
         C            0.270630981038    -0.975809930855     0.000000000000    12.000000000000
         C           -0.368278973833    -2.141045848013     0.000000000000    12.000000000000
         H           -1.477321895288     0.294936978824     0.000000000000     1.007825032230
         H            0.540307961401     2.004319857599     1.576126888016     1.007825032230
         H            0.540307961401     2.004319857599    -1.576126888016     1.007825032230
         H            1.357027903456    -0.957392931933     0.000000000000     1.007825032230
         H           -1.450607897243    -2.190687844690     0.000000000000     1.007825032230
         H            0.164599988299    -3.081472781232     0.000000000000     1.007825032230

  Running in cs symmetry.

  Rotational constants: A =      0.66152  B =      0.10430  C =      0.10157 [cm^-1]
  Rotational constants: A =  19831.75361  B =   3126.87769  C =   3045.07344 [MHz]
  Nuclear repulsion =  146.954213288279618

  Charge       = 0
  Multiplicity = 1
  Electrons    = 36
  Nalpha       = 18
  Nbeta        = 18

  ==> Algorithm <==

  SCF Algorithm Type is DF.
  DIIS enabled.
  MOM disabled.
  Fractional occupation disabled.
  Guess Type is SAD.
  Energy threshold   = 1.00e-08
  Density threshold  = 1.00e-06
  Integral threshold = 1.00e-12

  ==> Primary Basis <==

  Basis Set: DEF2-TZVP
    Blend: DEF2-TZVP
    Number of shells: 79
    Number of basis functions: 191
    Number of Cartesian functions: 216
    Spherical Harmonics?: true
    Max angular momentum: 3

  ==> DFT Potential <==

   => LibXC <=

    Version 7.1.2
    S. Lehtola, C. Steigemann, M. J. T. Oliveira, and M. A. L. Marques,  SoftwareX 7, 1–5 (2018) (10.1016/j.softx.2017.11.002)

   => Composite Functional: B3LYP-D3BJ2B <= 

    B3LYP-d3bj2b Hyb-GGA Exchange-Correlation Functional

    P. J. Stephens, F. J. Devlin, C. F. Chabalowski, and M. J. Frisch,  J. Phys. Chem. 98, 11623 (1994) (10.1021/j100096a001)

    Deriv               =              1
    GGA                 =           TRUE
    Meta                =          FALSE

    Exchange Hybrid     =           TRUE
    MP2 Hybrid          =          FALSE

   => Exchange Functionals <=

    0.0800   Slater exchange
    0.7200         Becke 88

   => Exact (HF) Exchange <=

    0.2000               HF 

   => Correlation Functionals <=

    0.1900   Vosko, Wilk & Nusair (VWN5_RPA)
    0.8100   Lee, Yang & Parr

   => LibXC Density Thresholds  <==

    XC_HYB_GGA_XC_B3LYP:  1.00E-15 

   => Molecular Quadrature <=

    Radial Scheme          =       TREUTLER
    Pruning Scheme         =           NONE
    Nuclear Scheme         =       TREUTLER

    Blocking Scheme        =         OCTREE
    BS radius alpha        =              1
    Pruning alpha          =              1
    Radial Points          =             75
    Spherical Points       =            302
    Total Points           =         236095
    Total Blocks           =           1803
    Max Points             =            256
    Max Functions          =            188
    Weights Tolerance      =       1.00E-15

   => Loading Basis Set <=

    Name: (DEF2-TZVP AUX)
    Role: JKFIT
    Keyword: DF_BASIS_SCF
    atoms 1-5  entry C          line   198 file /Users/hoyoun/micromamba/envs/psi4env/share/psi4/basis/def2-universal-jkfit.gbs 
    atoms 6-11 entry H          line    18 file /Users/hoyoun/micromamba/envs/psi4env/share/psi4/basis/def2-universal-jkfit.gbs 

  ==> Integral Setup <==

  DFHelper Memory: AOs need 0.140 GiB; user supplied 1.047 GiB. 
  SCF_SUBTYPE=INCORE selected. In-core MEM_DF algorithm will be used.
  Using in-core AOs.

  ==> MemDFJK: Density-Fitted J/K Matrices <==

    J tasked:                   Yes
    K tasked:                   Yes
    wK tasked:                   No
    OpenMP threads:               8
    Memory [MiB]:              1072
    Algorithm:                 Core
    Schwarz Cutoff:           1E-12
    Mask sparsity (%):       2.2587
    Fitting Condition:        1E-10

   => Auxiliary Basis Set <=

  Basis Set: (DEF2-TZVP AUX)
    Blend: DEF2-UNIVERSAL-JKFIT
    Number of shells: 161
    Number of basis functions: 483
    Number of Cartesian functions: 565
    Spherical Harmonics?: true
    Max angular momentum: 4

  Cached 100.0% of DFT collocation blocks in 1.048 [GiB].

  Minimum eigenvalue in the overlap matrix is 1.4297048163E-04.
  Reciprocal condition number of the overlap matrix is 1.7624562701E-05.
    Using symmetric orthogonalization.

  ==> Pre-Iterations <==

  SCF Guess: Superposition of Atomic Densities via on-the-fly atomic UHF (no occupation information).

   -------------------------
    Irrep   Nso     Nmo    
   -------------------------
     A'       120     120 
     A"        71      71 
   -------------------------
    Total     191     191
   -------------------------

  ==> Iterations <==

                           Total Energy        Delta E     RMS |[F,P]|

   @DF-RKS iter SAD:  -193.49375254558757   -1.93494e+02   0.00000e+00 
   @DF-RKS iter   1:  -193.58894736823706   -9.51948e-02   7.10078e-03 ADIIS/DIIS
   @DF-RKS iter   2:  -193.27207135328567    3.16876e-01   8.75340e-03 ADIIS/DIIS
   @DF-RKS iter   3:  -194.09661893248764   -8.24548e-01   1.11789e-03 ADIIS/DIIS
   @DF-RKS iter   4:  -194.10140485153451   -4.78592e-03   9.08773e-04 ADIIS/DIIS
   @DF-RKS iter   5:  -194.10929560318652   -7.89075e-03   1.23662e-04 ADIIS/DIIS
   @DF-RKS iter   6:  -194.10942371177813   -1.28109e-04   4.68000e-05 DIIS
   @DF-RKS iter   7:  -194.10944422105999   -2.05093e-05   5.11873e-06 DIIS
   @DF-RKS iter   8:  -194.10944444212467   -2.21065e-07   1.97129e-06 DIIS
   @DF-RKS iter   9:  -194.10944447895972   -3.68350e-08   5.30702e-07 DIIS
   @DF-RKS iter  10:  -194.10944448172089   -2.76117e-09   8.75902e-08 DIIS
  Energy and wave function converged.


  ==> Post-Iterations <==

   Electrons on quadrature grid:
      Ntotal   =   35.9999678157 ; deviation = -3.218e-05 

    Orbital Energies [Eh]
    ---------------------

    Doubly Occupied:                                                      

       1Ap   -10.196996     2Ap   -10.194452     1App  -10.193144  
       3Ap   -10.169357     4Ap   -10.156958     5Ap    -0.887296  
       6Ap    -0.765859     7Ap    -0.624698     2App   -0.574741  
       8Ap    -0.555054     9Ap    -0.517754    10Ap    -0.446084  
      11Ap    -0.439560    12Ap    -0.362345    13Ap    -0.352792  
       3App   -0.339948    14Ap    -0.270078     4App   -0.243992  

    Virtual:                                                              

       5App   -0.021263     6App    0.019024    15Ap     0.068931  
      16Ap     0.073698     7App    0.079935    17Ap     0.080113  
      18Ap     0.101662    19Ap     0.135736     8App    0.136335  
      20Ap     0.139797    21Ap     0.154252    22Ap     0.185770  
       9App    0.185835    23Ap     0.213860    24Ap     0.233156  
      10App    0.241668    25Ap     0.267253    26Ap     0.286155  
      11App    0.294271    12App    0.312773    27Ap     0.330727  
      28Ap     0.343804    13App    0.350433    29Ap     0.367930  
      14App    0.397018    30Ap     0.404579    15App    0.411765  
      31Ap     0.425130    32Ap     0.437440    33Ap     0.451859  
      34Ap     0.468294    35Ap     0.481081    16App    0.516219  
      36Ap     0.518381    37Ap     0.565004    38Ap     0.580026  
      17App    0.619550    39Ap     0.645090    40Ap     0.661072  
      18App    0.689942    19App    0.707257    41Ap     0.722370  
      42Ap     0.823808    20App    0.830329    43Ap     0.867522  
      44Ap     0.903848    45Ap     0.936406    21App    0.962681  
      22App    0.979816    46Ap     0.986506    47Ap     1.003279  
      48Ap     1.017857    23App    1.069585    24App    1.096200  
      25App    1.101870    49Ap     1.114866    50Ap     1.130138  
      51Ap     1.161611    26App    1.220008    52Ap     1.245205  
      53Ap     1.284897    27App    1.285867    28App    1.319200  
      54Ap     1.330594    55Ap     1.456351    29App    1.457958  
      30App    1.478524    56Ap     1.492683    57Ap     1.539139  
      58Ap     1.560118    31App    1.593258    59Ap     1.596327  
      60Ap     1.652530    32App    1.674708    61Ap     1.685932  
      33App    1.707946    62Ap     1.745946    34App    1.776892  
      63Ap     1.782310    35App    1.838203    64Ap     1.849889  
      65Ap     1.930306    66Ap     1.995977    36App    2.016603  
      37App    2.037265    67Ap     2.060874    38App    2.153471  
      68Ap     2.190689    39App    2.196805    69Ap     2.237335  
      70Ap     2.256944    40App    2.269629    71Ap     2.283479  
      72Ap     2.335864    73Ap     2.375280    74Ap     2.426040  
      75Ap     2.469383    41App    2.528799    76Ap     2.565742  
      42App    2.569835    77Ap     2.577675    43App    2.585075  
      78Ap     2.607296    44App    2.613478    79Ap     2.638892  
      80Ap     2.671124    81Ap     2.688466    82Ap     2.710552  
      83Ap     2.728366    45App    2.775150    46App    2.844263  
      84Ap     2.852702    85Ap     2.868150    47App    2.912408  
      86Ap     2.945573    87Ap     2.972507    88Ap     2.996018  
      48App    3.000417    49App    3.043230    89Ap     3.069783  
      50App    3.076629    90Ap     3.094351    51App    3.108441  
      52App    3.127328    91Ap     3.134861    53App    3.187727  
      54App    3.231602    92Ap     3.240091    55App    3.267601  
      93Ap     3.288966    56App    3.292469    94Ap     3.302807  
      95Ap     3.341982    57App    3.348616    58App    3.405110  
      96Ap     3.426579    97Ap     3.498080    59App    3.503186  
      98Ap     3.545897    99Ap     3.566208   100Ap     3.618020  
      60App    3.620884    61App    3.722240   101Ap     3.742126  
     102Ap     3.787832    62App    3.953845   103Ap     3.974493  
     104Ap     4.001357    63App    4.052954   105Ap     4.074036  
     106Ap     4.176095    64App    4.230429   107Ap     4.295939  
     108Ap     4.329689    65App    4.359729   109Ap     4.430173  
      66App    4.443315    67App    4.474044    68App    4.497733  
     110Ap     4.646594   111Ap     4.728612   112Ap     4.737670  
     113Ap     4.880836   114Ap     4.935744    69App    4.952267  
     115Ap     5.027699   116Ap     5.169750    70App    5.278261  
     117Ap    22.151579   118Ap    22.248604   119Ap    22.503397  
      71App   22.523662   120Ap    22.749415  

    Final Occupation by Irrep:
             Ap   App 
    DOCC [    14,    4 ]
    NA   [    14,    4 ]
    NB   [    14,    4 ]

  @DF-RKS Final Energy:  -194.10944448172089

   => Energetics <=

    Nuclear Repulsion Energy =            146.9542132882796182
    One-Electron Energy =                -550.4346219574388215
    Two-Electron Energy =                 233.1335241206071771
    DFT Exchange-Correlation Energy =     -23.7492644677684375
    Empirical Dispersion Energy =          -0.0132954654004272
    VV10 Nonlocal Energy =                  0.0000000000000000
    Total Energy =                       -194.1094444817208853

Computation Completed


Properties will be evaluated at   0.000000,   0.000000,   0.000000 [a0]

Properties computed using the SCF density matrix


 Multipole Moments:

 ------------------------------------------------------------------------------------
     Multipole            Electronic (a.u.)      Nuclear  (a.u.)        Total (a.u.)
 ------------------------------------------------------------------------------------

 L = 1.  Multiply by 2.5417464519 to convert [e a0] to [Debye]
 Dipole X            :          0.1107776           -0.0000113            0.1107663
 Dipole Y            :          0.3511540            0.0000094            0.3511634
 Dipole Z            :          0.0000000            0.0000000            0.0000000
 Magnitude           :                                                    0.3682186

 ------------------------------------------------------------------------------------

*** tstop() called on choehoyun-ui-MacBookAir.local at Sun Aug  9 16:17:35 2026
Module time:
	user time   =      16.25 seconds =       0.27 minutes
	system time =       0.35 seconds =       0.01 minutes
	total time  =          3 seconds =       0.05 minutes
Total time:
	user time   =      16.25 seconds =       0.27 minutes
	system time =       0.35 seconds =       0.01 minutes
	total time  =          3 seconds =       0.05 minutes

    Psi4 stopped on: Sunday, 09 August 2026 04:17PM
    Psi4 wall time for execution: 0:00:02.82

*** Psi4 exiting successfully. Buy a developer a beer!
