
    -----------------------------------------------------------------------
          Psi4: An Open-Source Ab Initio Electronic Structure Package
                               Psi4 1.11 release

                         Git: Rev {} zzzzzzz 


    D. G. A. Smith, L. A. Burns, A. C. Simmonett, R. M. Parrish,
    M. C. Schieber, R. Galvelis, P. Kraus, H. Kruse, R. Di Remigio,
    A. Alenaizan, A. M. James, S. Lehtola, J. P. Misiewicz, M. Scheurer,
    R. A. Shaw, J. B. Schriber, Y. Xie, Z. L. Glick, D. A. Sirianni,
    J. S. O'Brien, J. M. Waldrop, A. Kumar, E. G. Hohenstein,
    B. P. Pritchard, B. R. Brooks, H. F. Schaefer III, A. Yu. Sokolov,
    K. Patkowski, A. E. DePrince III, U. Bozkaya, R. A. King,
    F. A. Evangelista, J. M. Turney, T. D. Crawford, C. D. Sherrill,
    J. Chem. Phys. 152(18) 184108 (2020). https://doi.org/10.1063/5.0006002

                            Additional Code Authors
    E. T. Seidl, C. L. Janssen, E. F. Valeev, M. L. Leininger,
    J. F. Gonthier, R. M. Richard, H. R. McAlexander, M. Saitow, X. Wang,
    P. Verma, M. H. Lechner, A. Jiang, S. Behnle, A. G. Heide,
    M. F. Herbst, D. L. Poole, T. Győri, E. C. Mitchell, J. P. Pederson,
    and A. M. Wallace

             Previous Authors, Complete List of Code Contributors,
                       and Citations for Specific Modules
    https://github.com/psi4/psi4/blob/master/codemeta.json
    https://github.com/psi4/psi4/graphs/contributors
    https://psicode.org/psi4manual/master/introduction.html#citing-psifour

    -----------------------------------------------------------------------


    Psi4 started on: Monday, 10 August 2026 06:38PM

    Process ID: 75997
    Host:       choehoyun-ui-MacBookAir.local
    PSIDATADIR: /Users/hoyoun/micromamba/envs/psi4env/share/psi4
    Memory:     500.0 MiB
    Threads:    8
    Addons:     a̶d̶c̶c̶, a̶m̶b̶i̶t̶, b̶s̶e̶, c̶c̶t̶3̶, c̶f̶o̶u̶r̶, c̶h̶e̶m̶p̶s̶2̶, c̶p̶p̶e̶, d̶d̶x̶, dftd3,
                d̶f̶t̶d̶4̶, dkh, ecpint, einsums, f̶o̶r̶t̶e̶, gauxc, g̶c̶p̶, g̶d̶m̶a̶,
                g̶e̶o̶m̶e̶t̶r̶i̶c̶, g̶p̶u̶_̶d̶f̶c̶c̶, i̶n̶t̶e̶g̶r̶a̶t̶o̶r̶x̶x̶, i̶p̶i̶,
                l̶i̶b̶e̶f̶p̶, m̶d̶i̶, m̶p̶2̶d̶, m̶r̶c̶c̶, ooo, o̶p̶e̶n̶f̶e̶r̶m̶i̶o̶n̶p̶s̶i̶4̶,
                pcmsolver, p̶s̶i̶4̶f̶o̶c̶k̶c̶i̶, p̶s̶i̶x̶a̶s̶, p̶y̶e̶i̶n̶s̶u̶m̶s̶, r̶e̶s̶p̶,
                s̶i̶m̶i̶n̶t̶, s̶n̶s̶m̶p̶2̶, v̶2̶r̶d̶m̶_̶c̶a̶s̶s̶c̶f̶

  ==> Input File <==

--------------------------------------------------------------------------
memory 3 GB
molecule mol {
0 1
N -1.31640780263813 0.33511707945675 0.09330499904707
C -1.37425122213197 -1.09368424335120 -0.22388464648632
C -0.16097204999965 -1.89479238207552 0.26793528855692
C 1.14149085697268 -1.25102512639997 -0.22084040127425
C 1.18907799748915 0.23868226211043 0.14203005387284
C -0.06993382029080 0.97920913231832 -0.34510418711462
C -0.07728389056579 2.44492035204841 0.07545491607768
H -1.43043708469396 0.47034081415854 1.09432469211710
H -2.30142603351728 -1.49897344989553 0.18920883109230
H -1.45078685001510 -1.18745440127752 -1.31383274891281
H -0.23106904694665 -2.93240664830295 -0.07472120306004
H -0.16796882700996 -1.92185783518910 1.36447717115480
H 2.00851952876385 -1.77245266212583 0.19456230967316
H 1.20786780069802 -1.35793642054588 -1.31057678261547
H 2.08414559775848 0.70496349841461 -0.28312005899228
H 1.26215731771030 0.34978037715806 1.23180220968340
H -0.07686670381322 0.93680098937356 -1.44270272906620
H -0.08460574244215 2.53608915871629 1.16677377173728
H 0.81125821198830 2.96291987111506 -0.29274898492328
H -0.96250823731611 2.95175963429350 -0.31234250056731
units angstrom
no_reorient
no_com
}
set basis def2-SVP
set scf_type df
set freeze_core true
set e_convergence 8
energy('b3lyp-d3bj')
--------------------------------------------------------------------------

  Memory set to   2.794 GiB by Python driver.

Scratch directory: /Users/hoyoun/Documents/Yonsei_AX_Camp/(진짜_이게_최종)/calibration/dft_work/_scratch/P23/
   => Libint2 <=

    Primary   basis highest AM E, G, H:  7, 6, 3
    Auxiliary basis highest AM E, G, H:  7, 7, 4
    Onebody   basis highest AM E, G, H:  -, -, -
    Solid Harmonics ordering:            Gaussian

*** tstart() called on choehoyun-ui-MacBookAir.local
*** at Mon Aug 10 18:38:38 2026

   => Loading Basis Set <=

    Name: DEF2-SVP
    Role: ORBITAL
    Keyword: BASIS
    atoms 1    entry N          line   110 file /Users/hoyoun/micromamba/envs/psi4env/share/psi4/basis/def2-svp.gbs 
    atoms 2-7  entry C          line    90 file /Users/hoyoun/micromamba/envs/psi4env/share/psi4/basis/def2-svp.gbs 
    atoms 8-20 entry H          line    15 file /Users/hoyoun/micromamba/envs/psi4env/share/psi4/basis/def2-svp.gbs 

   => B3LYP-D3(BJ): Empirical Dispersion <=

    Grimme's -D3 (BJ-damping) Dispersion Correction
    Grimme S.; Ehrlich S.; Goerigk L. (2011), J. Comput. Chem., 32: 1456

        s6 =       1.000000
        s8 =       1.988900
        a1 =       0.398100
        a2 =       4.421100


         ---------------------------------------------------------
                                   SCF
               by Justin Turney, Rob Parrish, Andy Simmonett
                          and Daniel G. A. Smith
                              RKS Reference
                        8 Threads,   2861 MiB Core
         ---------------------------------------------------------

  ==> Geometry <==

    Molecular point group: c1
    Full point group: C1

    Geometry (in Angstrom), charge = 0, multiplicity = 1:

       Center              X                  Y                   Z               Mass       
    ------------   -----------------  -----------------  -----------------  -----------------
         N           -1.316407802638     0.335117079457     0.093304999047    14.003074004430
         C           -1.374251222132    -1.093684243351    -0.223884646486    12.000000000000
         C           -0.160972050000    -1.894792382076     0.267935288557    12.000000000000
         C            1.141490856973    -1.251025126400    -0.220840401274    12.000000000000
         C            1.189077997489     0.238682262110     0.142030053873    12.000000000000
         C           -0.069933820291     0.979209132318    -0.345104187115    12.000000000000
         C           -0.077283890566     2.444920352048     0.075454916078    12.000000000000
         H           -1.430437084694     0.470340814159     1.094324692117     1.007825032230
         H           -2.301426033517    -1.498973449896     0.189208831092     1.007825032230
         H           -1.450786850015    -1.187454401278    -1.313832748913     1.007825032230
         H           -0.231069046947    -2.932406648303    -0.074721203060     1.007825032230
         H           -0.167968827010    -1.921857835189     1.364477171155     1.007825032230
         H            2.008519528764    -1.772452662126     0.194562309673     1.007825032230
         H            1.207867800698    -1.357936420546    -1.310576782615     1.007825032230
         H            2.084145597758     0.704963498415    -0.283120058992     1.007825032230
         H            1.262157317710     0.349780377158     1.231802209683     1.007825032230
         H           -0.076866703813     0.936800989374    -1.442702729066     1.007825032230
         H           -0.084605742442     2.536089158716     1.166773771737     1.007825032230
         H            0.811258211988     2.962919871115    -0.292748984923     1.007825032230
         H           -0.962508237316     2.951759634293    -0.312342500567     1.007825032230

  Running in c1 symmetry.

  Rotational constants: A =      0.14224  B =      0.07510  C =      0.05414 [cm^-1]
  Rotational constants: A =   4264.30137  B =   2251.52859  C =   1623.13635 [MHz]
  Nuclear repulsion =  331.810483301023737

  Charge       = 0
  Multiplicity = 1
  Electrons    = 56
  Nalpha       = 28
  Nbeta        = 28

  ==> Algorithm <==

  SCF Algorithm Type is DF.
  DIIS enabled.
  MOM disabled.
  Fractional occupation disabled.
  Guess Type is SAD.
  Energy threshold   = 1.00e-08
  Density threshold  = 1.00e-06
  Integral threshold = 1.00e-12

  ==> Primary Basis <==

  Basis Set: DEF2-SVP
    Blend: DEF2-SVP
    Number of shells: 81
    Number of basis functions: 163
    Number of Cartesian functions: 170
    Spherical Harmonics?: true
    Max angular momentum: 2

  ==> DFT Potential <==

   => LibXC <=

    Version 7.1.2
    S. Lehtola, C. Steigemann, M. J. T. Oliveira, and M. A. L. Marques,  SoftwareX 7, 1–5 (2018) (10.1016/j.softx.2017.11.002)

   => Composite Functional: B3LYP-D3BJ2B <= 

    B3LYP-d3bj2b Hyb-GGA Exchange-Correlation Functional

    P. J. Stephens, F. J. Devlin, C. F. Chabalowski, and M. J. Frisch,  J. Phys. Chem. 98, 11623 (1994) (10.1021/j100096a001)

    Deriv               =              1
    GGA                 =           TRUE
    Meta                =          FALSE

    Exchange Hybrid     =           TRUE
    MP2 Hybrid          =          FALSE

   => Exchange Functionals <=

    0.0800   Slater exchange
    0.7200         Becke 88

   => Exact (HF) Exchange <=

    0.2000               HF 

   => Correlation Functionals <=

    0.1900   Vosko, Wilk & Nusair (VWN5_RPA)
    0.8100   Lee, Yang & Parr

   => LibXC Density Thresholds  <==

    XC_HYB_GGA_XC_B3LYP:  1.00E-15 

   => Molecular Quadrature <=

    Radial Scheme          =       TREUTLER
    Pruning Scheme         =           NONE
    Nuclear Scheme         =       TREUTLER

    Blocking Scheme        =         OCTREE
    BS radius alpha        =              1
    Pruning alpha          =              1
    Radial Points          =             75
    Spherical Points       =            302
    Total Points           =         418004
    Total Blocks           =           3062
    Max Points             =            256
    Max Functions          =            162
    Weights Tolerance      =       1.00E-15

   => Loading Basis Set <=

    Name: (DEF2-SVP AUX)
    Role: JKFIT
    Keyword: DF_BASIS_SCF
    atoms 1    entry N          line   258 file /Users/hoyoun/micromamba/envs/psi4env/share/psi4/basis/def2-universal-jkfit.gbs 
    atoms 2-7  entry C          line   198 file /Users/hoyoun/micromamba/envs/psi4env/share/psi4/basis/def2-universal-jkfit.gbs 
    atoms 8-20 entry H          line    18 file /Users/hoyoun/micromamba/envs/psi4env/share/psi4/basis/def2-universal-jkfit.gbs 

  ==> Integral Setup <==

  DFHelper Memory: AOs need 0.157 GiB; user supplied 0.611 GiB. 
  SCF_SUBTYPE=INCORE selected. In-core MEM_DF algorithm will be used.
  Using in-core AOs.

  ==> MemDFJK: Density-Fitted J/K Matrices <==

    J tasked:                   Yes
    K tasked:                   Yes
    wK tasked:                   No
    OpenMP threads:               8
    Memory [MiB]:               625
    Algorithm:                 Core
    Schwarz Cutoff:           1E-12
    Mask sparsity (%):       3.0035
    Fitting Condition:        1E-10

   => Auxiliary Basis Set <=

  Basis Set: (DEF2-SVP AUX)
    Blend: DEF2-UNIVERSAL-JKFIT
    Number of shells: 253
    Number of basis functions: 761
    Number of Cartesian functions: 887
    Spherical Harmonics?: true
    Max angular momentum: 4

  Cached 100.0% of DFT collocation blocks in 1.485 [GiB].

  Minimum eigenvalue in the overlap matrix is 1.4122858086E-03.
  Reciprocal condition number of the overlap matrix is 1.9196554684E-04.
    Using symmetric orthogonalization.

  ==> Pre-Iterations <==

  SCF Guess: Superposition of Atomic Densities via on-the-fly atomic UHF (no occupation information).

   -------------------------
    Irrep   Nso     Nmo    
   -------------------------
     A        163     163 
   -------------------------
    Total     163     163
   -------------------------

  ==> Iterations <==

                           Total Energy        Delta E     RMS |[F,P]|

   @DF-RKS iter SAD:  -290.56920563917964   -2.90569e+02   0.00000e+00 
   @DF-RKS iter   1:  -290.40559689778416    1.63609e-01   6.54265e-03 ADIIS/DIIS
   @DF-RKS iter   2:  -289.96285904513769    4.42738e-01   8.62142e-03 ADIIS/DIIS
   @DF-RKS iter   3:  -291.03346575290641   -1.07061e+00   8.17260e-04 ADIIS/DIIS
   @DF-RKS iter   4:  -291.03994079385649   -6.47504e-03   3.95177e-04 ADIIS/DIIS
   @DF-RKS iter   5:  -291.04178503211392   -1.84424e-03   9.61244e-05 DIIS
   @DF-RKS iter   6:  -291.04188680661053   -1.01774e-04   2.65243e-05 DIIS
   @DF-RKS iter   7:  -291.04189463179881   -7.82519e-06   6.26748e-06 DIIS
   @DF-RKS iter   8:  -291.04189515227529   -5.20476e-07   7.13467e-07 DIIS
   @DF-RKS iter   9:  -291.04189515900367   -6.72838e-09   2.50598e-07 DIIS
  Energy and wave function converged.


  ==> Post-Iterations <==

   Electrons on quadrature grid:
      Ntotal   =   56.0001004367 ; deviation = 1.004e-04 

    Orbital Energies [Eh]
    ---------------------

    Doubly Occupied:                                                      

       1A    -14.298609     2A    -10.204252     3A    -10.199677  
       4A    -10.178572     5A    -10.175837     6A    -10.174495  
       7A    -10.172645     8A     -0.896745     9A     -0.773061  
      10A     -0.760824    11A     -0.680512    12A     -0.621740  
      13A     -0.589486    14A     -0.563651    15A     -0.475226  
      16A     -0.458566    17A     -0.452164    18A     -0.433422  
      19A     -0.422551    20A     -0.395121    21A     -0.373951  
      22A     -0.368381    23A     -0.361417    24A     -0.338784  
      25A     -0.332673    26A     -0.321035    27A     -0.314530  
      28A     -0.212130  

    Virtual:                                                              

      29A      0.053421    30A      0.068210    31A      0.076070  
      32A      0.093735    33A      0.118788    34A      0.127490  
      35A      0.128309    36A      0.138884    37A      0.141179  
      38A      0.146327    39A      0.157566    40A      0.162228  
      41A      0.170727    42A      0.199235    43A      0.228472  
      44A      0.240548    45A      0.250354    46A      0.259598  
      47A      0.264548    48A      0.280325    49A      0.412508  
      50A      0.416810    51A      0.429904    52A      0.438566  
      53A      0.458317    54A      0.478003    55A      0.486821  
      56A      0.542333    57A      0.555661    58A      0.604762  
      59A      0.606380    60A      0.620515    61A      0.632174  
      62A      0.634352    63A      0.648758    64A      0.654773  
      65A      0.663911    66A      0.667153    67A      0.675996  
      68A      0.677077    69A      0.687905    70A      0.690734  
      71A      0.700691    72A      0.706109    73A      0.715934  
      74A      0.720226    75A      0.721681    76A      0.726760  
      77A      0.741866    78A      0.762510    79A      0.797572  
      80A      0.835999    81A      0.876277    82A      0.937335  
      83A      0.994723    84A      1.044718    85A      1.107088  
      86A      1.115802    87A      1.133455    88A      1.168492  
      89A      1.220137    90A      1.250207    91A      1.268307  
      92A      1.291254    93A      1.322074    94A      1.394435  
      95A      1.409648    96A      1.426965    97A      1.489421  
      98A      1.525846    99A      1.546589   100A      1.655208  
     101A      1.698054   102A      1.718029   103A      1.741688  
     104A      1.742948   105A      1.748534   106A      1.770717  
     107A      1.778561   108A      1.784356   109A      1.798133  
     110A      1.813525   111A      1.816126   112A      1.838018  
     113A      1.841320   114A      1.856023   115A      1.873577  
     116A      1.875907   117A      1.892287   118A      1.902817  
     119A      1.923716   120A      1.934236   121A      1.939495  
     122A      1.961627   123A      1.977671   124A      1.986917  
     125A      2.030995   126A      2.042619   127A      2.059682  
     128A      2.108529   129A      2.153987   130A      2.180438  
     131A      2.230972   132A      2.247351   133A      2.264459  
     134A      2.288532   135A      2.353998   136A      2.391616  
     137A      2.437104   138A      2.450917   139A      2.467515  
     140A      2.486987   141A      2.510676   142A      2.549106  
     143A      2.579598   144A      2.597070   145A      2.618225  
     146A      2.676754   147A      2.715202   148A      2.747064  
     149A      2.774926   150A      2.831766   151A      2.867504  
     152A      2.889988   153A      2.915508   154A      2.929105  
     155A      2.971641   156A      2.985928   157A      3.003803  
     158A      3.034502   159A      3.063698   160A      3.097347  
     161A      3.148031   162A      3.211903   163A      3.397928  

    Final Occupation by Irrep:
              A 
    DOCC [    28 ]
    NA   [    28 ]
    NB   [    28 ]

  @DF-RKS Final Energy:  -291.04189515900367

   => Energetics <=

    Nuclear Repulsion Energy =            331.8104833010237371
    One-Electron Energy =               -1048.7432018038341539
    Two-Electron Energy =                 461.8244894542731913
    DFT Exchange-Correlation Energy =     -35.9036778809389645
    Empirical Dispersion Energy =          -0.0299882295274916
    VV10 Nonlocal Energy =                  0.0000000000000000
    Total Energy =                       -291.0418951590036727

Computation Completed


Properties will be evaluated at   0.000000,   0.000000,   0.000000 [a0]

Properties computed using the SCF density matrix


 Multipole Moments:

 ------------------------------------------------------------------------------------
     Multipole            Electronic (a.u.)      Nuclear  (a.u.)        Total (a.u.)
 ------------------------------------------------------------------------------------

 L = 1.  Multiply by 2.5417464519 to convert [e a0] to [Debye]
 Dipole X            :          9.0693822           -8.8019804            0.2674018
 Dipole Y            :          1.4935918           -1.6492538           -0.1556620
 Dipole Z            :          2.0247876           -1.8183226            0.2064650
 Magnitude           :                                                    0.3719707

 ------------------------------------------------------------------------------------

*** tstop() called on choehoyun-ui-MacBookAir.local at Mon Aug 10 18:38:41 2026
Module time:
	user time   =      19.07 seconds =       0.32 minutes
	system time =       0.53 seconds =       0.01 minutes
	total time  =          3 seconds =       0.05 minutes
Total time:
	user time   =      19.07 seconds =       0.32 minutes
	system time =       0.53 seconds =       0.01 minutes
	total time  =          3 seconds =       0.05 minutes

    Psi4 stopped on: Monday, 10 August 2026 06:38PM
    Psi4 wall time for execution: 0:00:03.49

*** Psi4 exiting successfully. Buy a developer a beer!
