
    -----------------------------------------------------------------------
          Psi4: An Open-Source Ab Initio Electronic Structure Package
                               Psi4 1.11 release

                         Git: Rev {} zzzzzzz 


    D. G. A. Smith, L. A. Burns, A. C. Simmonett, R. M. Parrish,
    M. C. Schieber, R. Galvelis, P. Kraus, H. Kruse, R. Di Remigio,
    A. Alenaizan, A. M. James, S. Lehtola, J. P. Misiewicz, M. Scheurer,
    R. A. Shaw, J. B. Schriber, Y. Xie, Z. L. Glick, D. A. Sirianni,
    J. S. O'Brien, J. M. Waldrop, A. Kumar, E. G. Hohenstein,
    B. P. Pritchard, B. R. Brooks, H. F. Schaefer III, A. Yu. Sokolov,
    K. Patkowski, A. E. DePrince III, U. Bozkaya, R. A. King,
    F. A. Evangelista, J. M. Turney, T. D. Crawford, C. D. Sherrill,
    J. Chem. Phys. 152(18) 184108 (2020). https://doi.org/10.1063/5.0006002

                            Additional Code Authors
    E. T. Seidl, C. L. Janssen, E. F. Valeev, M. L. Leininger,
    J. F. Gonthier, R. M. Richard, H. R. McAlexander, M. Saitow, X. Wang,
    P. Verma, M. H. Lechner, A. Jiang, S. Behnle, A. G. Heide,
    M. F. Herbst, D. L. Poole, T. Győri, E. C. Mitchell, J. P. Pederson,
    and A. M. Wallace

             Previous Authors, Complete List of Code Contributors,
                       and Citations for Specific Modules
    https://github.com/psi4/psi4/blob/master/codemeta.json
    https://github.com/psi4/psi4/graphs/contributors
    https://psicode.org/psi4manual/master/introduction.html#citing-psifour

    -----------------------------------------------------------------------


    Psi4 started on: Monday, 10 August 2026 06:38PM

    Process ID: 76015
    Host:       choehoyun-ui-MacBookAir.local
    PSIDATADIR: /Users/hoyoun/micromamba/envs/psi4env/share/psi4
    Memory:     500.0 MiB
    Threads:    8
    Addons:     a̶d̶c̶c̶, a̶m̶b̶i̶t̶, b̶s̶e̶, c̶c̶t̶3̶, c̶f̶o̶u̶r̶, c̶h̶e̶m̶p̶s̶2̶, c̶p̶p̶e̶, d̶d̶x̶, dftd3,
                d̶f̶t̶d̶4̶, dkh, ecpint, einsums, f̶o̶r̶t̶e̶, gauxc, g̶c̶p̶, g̶d̶m̶a̶,
                g̶e̶o̶m̶e̶t̶r̶i̶c̶, g̶p̶u̶_̶d̶f̶c̶c̶, i̶n̶t̶e̶g̶r̶a̶t̶o̶r̶x̶x̶, i̶p̶i̶,
                l̶i̶b̶e̶f̶p̶, m̶d̶i̶, m̶p̶2̶d̶, m̶r̶c̶c̶, ooo, o̶p̶e̶n̶f̶e̶r̶m̶i̶o̶n̶p̶s̶i̶4̶,
                pcmsolver, p̶s̶i̶4̶f̶o̶c̶k̶c̶i̶, p̶s̶i̶x̶a̶s̶, p̶y̶e̶i̶n̶s̶u̶m̶s̶, r̶e̶s̶p̶,
                s̶i̶m̶i̶n̶t̶, s̶n̶s̶m̶p̶2̶, v̶2̶r̶d̶m̶_̶c̶a̶s̶s̶c̶f̶

  ==> Input File <==

--------------------------------------------------------------------------
memory 3 GB
molecule mol {
0 1
C 0.00000000000000 -0.73287988197645 0.04993686770783
C 0.00000000000000 0.73287988197645 0.04993686770783
O 0.00000000000000 0.00000000000000 -1.17875427518707
H -0.91904523229096 -1.26905640287161 0.26972013494285
H 0.91904523229096 -1.26905640287161 0.26972013494285
H -0.91904523229096 1.26905640287161 0.26972013494285
H 0.91904523229096 1.26905640287161 0.26972013494285
units angstrom
no_reorient
no_com
}
set basis def2-SVP
set scf_type df
set freeze_core true
set e_convergence 8
energy('b3lyp-d3bj')
--------------------------------------------------------------------------

  Memory set to   2.794 GiB by Python driver.

Scratch directory: /Users/hoyoun/Documents/Yonsei_AX_Camp/(진짜_이게_최종)/calibration/dft_work/_scratch/P25/
   => Libint2 <=

    Primary   basis highest AM E, G, H:  7, 6, 3
    Auxiliary basis highest AM E, G, H:  7, 7, 4
    Onebody   basis highest AM E, G, H:  -, -, -
    Solid Harmonics ordering:            Gaussian

*** tstart() called on choehoyun-ui-MacBookAir.local
*** at Mon Aug 10 18:38:48 2026

   => Loading Basis Set <=

    Name: DEF2-SVP
    Role: ORBITAL
    Keyword: BASIS
    atoms 1-2 entry C          line    90 file /Users/hoyoun/micromamba/envs/psi4env/share/psi4/basis/def2-svp.gbs 
    atoms 3   entry O          line   130 file /Users/hoyoun/micromamba/envs/psi4env/share/psi4/basis/def2-svp.gbs 
    atoms 4-7 entry H          line    15 file /Users/hoyoun/micromamba/envs/psi4env/share/psi4/basis/def2-svp.gbs 

   => B3LYP-D3(BJ): Empirical Dispersion <=

    Grimme's -D3 (BJ-damping) Dispersion Correction
    Grimme S.; Ehrlich S.; Goerigk L. (2011), J. Comput. Chem., 32: 1456

        s6 =       1.000000
        s8 =       1.988900
        a1 =       0.398100
        a2 =       4.421100


         ---------------------------------------------------------
                                   SCF
               by Justin Turney, Rob Parrish, Andy Simmonett
                          and Daniel G. A. Smith
                              RKS Reference
                        8 Threads,   2861 MiB Core
         ---------------------------------------------------------

  ==> Geometry <==

    Molecular point group: c2v
    Full point group: C2v

    Geometry (in Angstrom), charge = 0, multiplicity = 1:

       Center              X                  Y                   Z               Mass       
    ------------   -----------------  -----------------  -----------------  -----------------
         C            0.000000000000    -0.732879881976     0.049936867708    12.000000000000
         C           -0.000000000000     0.732879881976     0.049936867708    12.000000000000
         O            0.000000000000     0.000000000000    -1.178754275187    15.994914619570
         H           -0.919045232291    -1.269056402872     0.269720134943     1.007825032230
         H            0.919045232291    -1.269056402872     0.269720134943     1.007825032230
         H           -0.919045232291     1.269056402872     0.269720134943     1.007825032230
         H            0.919045232291     1.269056402872     0.269720134943     1.007825032230

  Running in c2v symmetry.

  Rotational constants: A =      0.73975  B =      0.64881  C =      0.40175 [cm^-1]
  Rotational constants: A =  22177.27260  B =  19450.77914  C =  12044.13855 [MHz]
  Nuclear repulsion =   75.198342512345562

  Charge       = 0
  Multiplicity = 1
  Electrons    = 24
  Nalpha       = 12
  Nbeta        = 12

  ==> Algorithm <==

  SCF Algorithm Type is DF.
  DIIS enabled.
  MOM disabled.
  Fractional occupation disabled.
  Guess Type is SAD.
  Energy threshold   = 1.00e-08
  Density threshold  = 1.00e-06
  Integral threshold = 1.00e-12

  ==> Primary Basis <==

  Basis Set: DEF2-SVP
    Blend: DEF2-SVP
    Number of shells: 30
    Number of basis functions: 62
    Number of Cartesian functions: 65
    Spherical Harmonics?: true
    Max angular momentum: 2

  ==> DFT Potential <==

   => LibXC <=

    Version 7.1.2
    S. Lehtola, C. Steigemann, M. J. T. Oliveira, and M. A. L. Marques,  SoftwareX 7, 1–5 (2018) (10.1016/j.softx.2017.11.002)

   => Composite Functional: B3LYP-D3BJ2B <= 

    B3LYP-d3bj2b Hyb-GGA Exchange-Correlation Functional

    P. J. Stephens, F. J. Devlin, C. F. Chabalowski, and M. J. Frisch,  J. Phys. Chem. 98, 11623 (1994) (10.1021/j100096a001)

    Deriv               =              1
    GGA                 =           TRUE
    Meta                =          FALSE

    Exchange Hybrid     =           TRUE
    MP2 Hybrid          =          FALSE

   => Exchange Functionals <=

    0.0800   Slater exchange
    0.7200         Becke 88

   => Exact (HF) Exchange <=

    0.2000               HF 

   => Correlation Functionals <=

    0.1900   Vosko, Wilk & Nusair (VWN5_RPA)
    0.8100   Lee, Yang & Parr

   => LibXC Density Thresholds  <==

    XC_HYB_GGA_XC_B3LYP:  1.00E-15 

   => Molecular Quadrature <=

    Radial Scheme          =       TREUTLER
    Pruning Scheme         =           NONE
    Nuclear Scheme         =       TREUTLER

    Blocking Scheme        =         OCTREE
    BS radius alpha        =              1
    Pruning alpha          =              1
    Radial Points          =             75
    Spherical Points       =            302
    Total Points           =         151194
    Total Blocks           =           1191
    Max Points             =            256
    Max Functions          =             62
    Weights Tolerance      =       1.00E-15

   => Loading Basis Set <=

    Name: (DEF2-SVP AUX)
    Role: JKFIT
    Keyword: DF_BASIS_SCF
    atoms 1-2 entry C          line   198 file /Users/hoyoun/micromamba/envs/psi4env/share/psi4/basis/def2-universal-jkfit.gbs 
    atoms 3   entry O          line   318 file /Users/hoyoun/micromamba/envs/psi4env/share/psi4/basis/def2-universal-jkfit.gbs 
    atoms 4-7 entry H          line    18 file /Users/hoyoun/micromamba/envs/psi4env/share/psi4/basis/def2-universal-jkfit.gbs 

  ==> Integral Setup <==

  DFHelper Memory: AOs need 0.010 GiB; user supplied 1.840 GiB. 
  SCF_SUBTYPE=INCORE selected. In-core MEM_DF algorithm will be used.
  Using in-core AOs.

  ==> MemDFJK: Density-Fitted J/K Matrices <==

    J tasked:                   Yes
    K tasked:                   Yes
    wK tasked:                   No
    OpenMP threads:               8
    Memory [MiB]:              1883
    Algorithm:                 Core
    Schwarz Cutoff:           1E-12
    Mask sparsity (%):       0.0000
    Fitting Condition:        1E-10

   => Auxiliary Basis Set <=

  Basis Set: (DEF2-SVP AUX)
    Blend: DEF2-UNIVERSAL-JKFIT
    Number of shells: 99
    Number of basis functions: 299
    Number of Cartesian functions: 351
    Spherical Harmonics?: true
    Max angular momentum: 4

  Cached 100.0% of DFT collocation blocks in 0.256 [GiB].

  Minimum eigenvalue in the overlap matrix is 7.1982418335E-03.
  Reciprocal condition number of the overlap matrix is 1.5503693449E-03.
    Using symmetric orthogonalization.

  ==> Pre-Iterations <==

  SCF Guess: Superposition of Atomic Densities via on-the-fly atomic UHF (no occupation information).

   -------------------------
    Irrep   Nso     Nmo    
   -------------------------
     A1        22      22 
     A2        10      10 
     B1        12      12 
     B2        18      18 
   -------------------------
    Total      62      62
   -------------------------

  ==> Iterations <==

                           Total Energy        Delta E     RMS |[F,P]|

   @DF-RKS iter SAD:  -153.34966356452489   -1.53350e+02   0.00000e+00 
   @DF-RKS iter   1:  -153.52533460595998   -1.75671e-01   1.62893e-02 ADIIS/DIIS
   @DF-RKS iter   2:  -153.49188202452606    3.34526e-02   1.90028e-02 ADIIS/DIIS
   @DF-RKS iter   3:  -153.67265150313020   -1.80769e-01   2.67870e-03 ADIIS/DIIS
   @DF-RKS iter   4:  -153.67507727107846   -2.42577e-03   1.22123e-03 ADIIS/DIIS
   @DF-RKS iter   5:  -153.67566661433389   -5.89343e-04   7.54396e-05 DIIS
   @DF-RKS iter   6:  -153.67566903434474   -2.42001e-06   5.37722e-06 DIIS
   @DF-RKS iter   7:  -153.67566905039894   -1.60542e-08   5.42293e-07 DIIS
   @DF-RKS iter   8:  -153.67566905055449   -1.55552e-10   1.21971e-07 DIIS
  Energy and wave function converged.


  ==> Post-Iterations <==

   Electrons on quadrature grid:
      Ntotal   =   24.0000000485 ; deviation = 4.846e-08 

    Orbital Energies [Eh]
    ---------------------

    Doubly Occupied:                                                      

       1A1   -19.141106     2A1   -10.240087     1B2   -10.239897  
       3A1    -1.062434     4A1    -0.667664     2B2    -0.629532  
       1B1    -0.514145     5A1    -0.482726     3B2    -0.397646  
       1A2    -0.389176     6A1    -0.318260     2B1    -0.271065  

    Virtual:                                                              

       7A1     0.070321     4B2     0.091208     3B1     0.101851  
       5B2     0.115336     8A1     0.116095     2A2     0.166482  
       6B2     0.281727     9A1     0.376938     4B1     0.454108  
       7B2     0.470872    10A1     0.492046    11A1     0.515045  
       8B2     0.571064    12A1     0.635488     3A2     0.652470  
       5B1     0.660152     9B2     0.675750    10B2     0.706689  
       4A2     0.806503    13A1     0.947922     6B1     0.955530  
      11B2     1.264018     5A2     1.270074     7B1     1.288499  
      14A1     1.401054    15A1     1.501522     6A2     1.582947  
      16A1     1.599650     8B1     1.659955    12B2     1.677719  
       9B1     1.692035    17A1     1.770267    13B2     1.775832  
      10B1     2.017054     7A2     2.040417    14B2     2.051747  
      18A1     2.054003    19A1     2.308113    15B2     2.328930  
       8A2     2.348828    16B2     2.656761    11B1     2.692275  
      20A1     2.694354    21A1     2.851433     9A2     2.870232  
      17B2     2.966064    12B1     3.075430    10A2     3.132923  
      22A1     3.306767    18B2     3.400526  

    Final Occupation by Irrep:
             A1    A2    B1    B2 
    DOCC [     6,    1,    2,    3 ]
    NA   [     6,    1,    2,    3 ]
    NB   [     6,    1,    2,    3 ]

  @DF-RKS Final Energy:  -153.67566905055449

   => Energetics <=

    Nuclear Repulsion Energy =             75.1983425123455618
    One-Electron Energy =                -356.8787451830325494
    Two-Electron Energy =                 144.9226013873206398
    DFT Exchange-Correlation Energy =     -16.9128863932997362
    Empirical Dispersion Energy =          -0.0049813738884025
    VV10 Nonlocal Energy =                  0.0000000000000000
    Total Energy =                       -153.6756690505544896

Computation Completed


Properties will be evaluated at   0.000000,   0.000000,   0.000000 [a0]

Properties computed using the SCF density matrix


 Multipole Moments:

 ------------------------------------------------------------------------------------
     Multipole            Electronic (a.u.)      Nuclear  (a.u.)        Total (a.u.)
 ------------------------------------------------------------------------------------

 L = 1.  Multiply by 2.5417464519 to convert [e a0] to [Debye]
 Dipole X            :          0.0000000            0.0000000            0.0000000
 Dipole Y            :          0.0000000            0.0000000            0.0000000
 Dipole Z            :         15.4143589          -14.6489892            0.7653696
 Magnitude           :                                                    0.7653696

 ------------------------------------------------------------------------------------

*** tstop() called on choehoyun-ui-MacBookAir.local at Mon Aug 10 18:38:49 2026
Module time:
	user time   =       2.51 seconds =       0.04 minutes
	system time =       0.14 seconds =       0.00 minutes
	total time  =          1 seconds =       0.02 minutes
Total time:
	user time   =       2.51 seconds =       0.04 minutes
	system time =       0.14 seconds =       0.00 minutes
	total time  =          1 seconds =       0.02 minutes

    Psi4 stopped on: Monday, 10 August 2026 06:38PM
    Psi4 wall time for execution: 0:00:00.85

*** Psi4 exiting successfully. Buy a developer a beer!
