
    -----------------------------------------------------------------------
          Psi4: An Open-Source Ab Initio Electronic Structure Package
                               Psi4 1.11 release

                         Git: Rev {} zzzzzzz 


    D. G. A. Smith, L. A. Burns, A. C. Simmonett, R. M. Parrish,
    M. C. Schieber, R. Galvelis, P. Kraus, H. Kruse, R. Di Remigio,
    A. Alenaizan, A. M. James, S. Lehtola, J. P. Misiewicz, M. Scheurer,
    R. A. Shaw, J. B. Schriber, Y. Xie, Z. L. Glick, D. A. Sirianni,
    J. S. O'Brien, J. M. Waldrop, A. Kumar, E. G. Hohenstein,
    B. P. Pritchard, B. R. Brooks, H. F. Schaefer III, A. Yu. Sokolov,
    K. Patkowski, A. E. DePrince III, U. Bozkaya, R. A. King,
    F. A. Evangelista, J. M. Turney, T. D. Crawford, C. D. Sherrill,
    J. Chem. Phys. 152(18) 184108 (2020). https://doi.org/10.1063/5.0006002

                            Additional Code Authors
    E. T. Seidl, C. L. Janssen, E. F. Valeev, M. L. Leininger,
    J. F. Gonthier, R. M. Richard, H. R. McAlexander, M. Saitow, X. Wang,
    P. Verma, M. H. Lechner, A. Jiang, S. Behnle, A. G. Heide,
    M. F. Herbst, D. L. Poole, T. Győri, E. C. Mitchell, J. P. Pederson,
    and A. M. Wallace

             Previous Authors, Complete List of Code Contributors,
                       and Citations for Specific Modules
    https://github.com/psi4/psi4/blob/master/codemeta.json
    https://github.com/psi4/psi4/graphs/contributors
    https://psicode.org/psi4manual/master/introduction.html#citing-psifour

    -----------------------------------------------------------------------


    Psi4 started on: Monday, 10 August 2026 06:30PM

    Process ID: 74947
    Host:       choehoyun-ui-MacBookAir.local
    PSIDATADIR: /Users/hoyoun/micromamba/envs/psi4env/share/psi4
    Memory:     500.0 MiB
    Threads:    8
    Addons:     a̶d̶c̶c̶, a̶m̶b̶i̶t̶, b̶s̶e̶, c̶c̶t̶3̶, c̶f̶o̶u̶r̶, c̶h̶e̶m̶p̶s̶2̶, c̶p̶p̶e̶, d̶d̶x̶, dftd3,
                d̶f̶t̶d̶4̶, dkh, ecpint, einsums, f̶o̶r̶t̶e̶, gauxc, g̶c̶p̶, g̶d̶m̶a̶,
                g̶e̶o̶m̶e̶t̶r̶i̶c̶, g̶p̶u̶_̶d̶f̶c̶c̶, i̶n̶t̶e̶g̶r̶a̶t̶o̶r̶x̶x̶, i̶p̶i̶,
                l̶i̶b̶e̶f̶p̶, m̶d̶i̶, m̶p̶2̶d̶, m̶r̶c̶c̶, ooo, o̶p̶e̶n̶f̶e̶r̶m̶i̶o̶n̶p̶s̶i̶4̶,
                pcmsolver, p̶s̶i̶4̶f̶o̶c̶k̶c̶i̶, p̶s̶i̶x̶a̶s̶, p̶y̶e̶i̶n̶s̶u̶m̶s̶, r̶e̶s̶p̶,
                s̶i̶m̶i̶n̶t̶, s̶n̶s̶m̶p̶2̶, v̶2̶r̶d̶m̶_̶c̶a̶s̶s̶c̶f̶

  ==> Input File <==

--------------------------------------------------------------------------
memory 3 GB
molecule mol {
0 1
N -0.79328363719107 -1.37400756442796 -0.32036434074615
P -1.76898033288480 0.00000000000000 0.03727416829474
N -0.79328363719107 1.37400756442796 -0.32036434074615
P 0.88449016644240 1.53198190707329 0.03727416829474
N 1.58656727438213 0.00000000000000 -0.32036434074615
P 0.88449016644240 -1.53198190707329 0.03727416829474
H -1.08668580855801 -1.88219503228654 -1.14115545213395
H -1.47492019729794 0.00000000000000 1.42424562458542
H -1.08668580855801 1.88219503228654 -1.14115545213395
H 0.73746009864897 1.27731835941477 1.42424562458542
H 2.17337161711602 0.00000000000000 -1.14115545213395
H 0.73746009864897 -1.27731835941477 1.42424562458542
units angstrom
no_reorient
no_com
}
set basis def2-SVP
set scf_type df
set freeze_core true
set e_convergence 8
energy('b3lyp-d3bj')
--------------------------------------------------------------------------

  Memory set to   2.794 GiB by Python driver.

Scratch directory: /Users/hoyoun/Documents/Yonsei_AX_Camp/(진짜_이게_최종)/calibration/dft_work/_scratch/N3P3H12_1/
   => Libint2 <=

    Primary   basis highest AM E, G, H:  7, 6, 3
    Auxiliary basis highest AM E, G, H:  7, 7, 4
    Onebody   basis highest AM E, G, H:  -, -, -
    Solid Harmonics ordering:            Gaussian

*** tstart() called on choehoyun-ui-MacBookAir.local
*** at Mon Aug 10 18:30:08 2026

   => Loading Basis Set <=

    Name: DEF2-SVP
    Role: ORBITAL
    Keyword: BASIS
    atoms 1, 3, 5 entry N          line   110 file /Users/hoyoun/micromamba/envs/psi4env/share/psi4/basis/def2-svp.gbs 
    atoms 2, 4, 6 entry P          line   300 file /Users/hoyoun/micromamba/envs/psi4env/share/psi4/basis/def2-svp.gbs 
    atoms 7-12    entry H          line    15 file /Users/hoyoun/micromamba/envs/psi4env/share/psi4/basis/def2-svp.gbs 

   => B3LYP-D3(BJ): Empirical Dispersion <=

    Grimme's -D3 (BJ-damping) Dispersion Correction
    Grimme S.; Ehrlich S.; Goerigk L. (2011), J. Comput. Chem., 32: 1456

        s6 =       1.000000
        s8 =       1.988900
        a1 =       0.398100
        a2 =       4.421100


         ---------------------------------------------------------
                                   SCF
               by Justin Turney, Rob Parrish, Andy Simmonett
                          and Daniel G. A. Smith
                              RKS Reference
                        8 Threads,   2861 MiB Core
         ---------------------------------------------------------

  ==> Geometry <==

    Molecular point group: cs
    Full point group: C3v

    Geometry (in Angstrom), charge = 0, multiplicity = 1:

       Center              X                  Y                   Z               Mass       
    ------------   -----------------  -----------------  -----------------  -----------------
         N           -0.793283637191    -1.374007564428    -0.320364340746    14.003074004430
         P           -1.768980332885     0.000000000000     0.037274168295    30.973761998420
         N           -0.793283637191     1.374007564428    -0.320364340746    14.003074004430
         P            0.884490166442     1.531981907073     0.037274168295    30.973761998420
         N            1.586567274382     0.000000000000    -0.320364340746    14.003074004430
         P            0.884490166442    -1.531981907073     0.037274168295    30.973761998420
         H           -1.086685808558    -1.882195032287    -1.141155452134     1.007825032230
         H           -1.474920197298     0.000000000000     1.424245624585     1.007825032230
         H           -1.086685808558     1.882195032287    -1.141155452134     1.007825032230
         H            0.737460098649     1.277318359415     1.424245624585     1.007825032230
         H            2.173371617116     0.000000000000    -1.141155452134     1.007825032230
         H            0.737460098649    -1.277318359415     1.424245624585     1.007825032230

  Running in cs symmetry.

  Rotational constants: A =      0.07553  B =      0.07553  C =      0.04039 [cm^-1]
  Rotational constants: A =   2264.22304  B =   2264.22304  C =   1210.83095 [MHz]
  Nuclear repulsion =  478.789519562508247

  Charge       = 0
  Multiplicity = 1
  Electrons    = 72
  Nalpha       = 36
  Nbeta        = 36

  ==> Algorithm <==

  SCF Algorithm Type is DF.
  DIIS enabled.
  MOM disabled.
  Fractional occupation disabled.
  Guess Type is SAD.
  Energy threshold   = 1.00e-08
  Density threshold  = 1.00e-06
  Integral threshold = 1.00e-12

  ==> Primary Basis <==

  Basis Set: DEF2-SVP
    Blend: DEF2-SVP
    Number of shells: 60
    Number of basis functions: 126
    Number of Cartesian functions: 132
    Spherical Harmonics?: true
    Max angular momentum: 2

  ==> DFT Potential <==

   => LibXC <=

    Version 7.1.2
    S. Lehtola, C. Steigemann, M. J. T. Oliveira, and M. A. L. Marques,  SoftwareX 7, 1–5 (2018) (10.1016/j.softx.2017.11.002)

   => Composite Functional: B3LYP-D3BJ2B <= 

    B3LYP-d3bj2b Hyb-GGA Exchange-Correlation Functional

    P. J. Stephens, F. J. Devlin, C. F. Chabalowski, and M. J. Frisch,  J. Phys. Chem. 98, 11623 (1994) (10.1021/j100096a001)

    Deriv               =              1
    GGA                 =           TRUE
    Meta                =          FALSE

    Exchange Hybrid     =           TRUE
    MP2 Hybrid          =          FALSE

   => Exchange Functionals <=

    0.0800   Slater exchange
    0.7200         Becke 88

   => Exact (HF) Exchange <=

    0.2000               HF 

   => Correlation Functionals <=

    0.1900   Vosko, Wilk & Nusair (VWN5_RPA)
    0.8100   Lee, Yang & Parr

   => LibXC Density Thresholds  <==

    XC_HYB_GGA_XC_B3LYP:  1.00E-15 

   => Molecular Quadrature <=

    Radial Scheme          =       TREUTLER
    Pruning Scheme         =           NONE
    Nuclear Scheme         =       TREUTLER

    Blocking Scheme        =         OCTREE
    BS radius alpha        =              1
    Pruning alpha          =              1
    Radial Points          =             75
    Spherical Points       =            302
    Total Points           =         252325
    Total Blocks           =           1924
    Max Points             =            256
    Max Functions          =            122
    Weights Tolerance      =       1.00E-15

   => Loading Basis Set <=

    Name: (DEF2-SVP AUX)
    Role: JKFIT
    Keyword: DF_BASIS_SCF
    atoms 1, 3, 5 entry N          line   258 file /Users/hoyoun/micromamba/envs/psi4env/share/psi4/basis/def2-universal-jkfit.gbs 
    atoms 2, 4, 6 entry P          line   820 file /Users/hoyoun/micromamba/envs/psi4env/share/psi4/basis/def2-universal-jkfit.gbs 
    atoms 7-12    entry H          line    18 file /Users/hoyoun/micromamba/envs/psi4env/share/psi4/basis/def2-universal-jkfit.gbs 

  ==> Integral Setup <==

  DFHelper Memory: AOs need 0.092 GiB; user supplied 1.396 GiB. 
  SCF_SUBTYPE=INCORE selected. In-core MEM_DF algorithm will be used.
  Using in-core AOs.

  ==> MemDFJK: Density-Fitted J/K Matrices <==

    J tasked:                   Yes
    K tasked:                   Yes
    wK tasked:                   No
    OpenMP threads:               8
    Memory [MiB]:              1429
    Algorithm:                 Core
    Schwarz Cutoff:           1E-12
    Mask sparsity (%):       2.2928
    Fitting Condition:        1E-10

   => Auxiliary Basis Set <=

  Basis Set: (DEF2-SVP AUX)
    Blend: DEF2-UNIVERSAL-JKFIT
    Number of shells: 225
    Number of basis functions: 723
    Number of Cartesian functions: 864
    Spherical Harmonics?: true
    Max angular momentum: 4

  Cached 100.0% of DFT collocation blocks in 0.699 [GiB].

  Minimum eigenvalue in the overlap matrix is 5.6737477832E-03.
  Reciprocal condition number of the overlap matrix is 1.1243655603E-03.
    Using symmetric orthogonalization.

  ==> Pre-Iterations <==

  SCF Guess: Superposition of Atomic Densities via on-the-fly atomic UHF (no occupation information).

   -------------------------
    Irrep   Nso     Nmo    
   -------------------------
     A'        73      73 
     A"        53      53 
   -------------------------
    Total     126     126
   -------------------------

  ==> Iterations <==

                           Total Energy        Delta E     RMS |[F,P]|

   @DF-RKS iter SAD: -1191.50877547779100   -1.19151e+03   0.00000e+00 
   @DF-RKS iter   1: -1191.13967669269869    3.69099e-01   1.13302e-02 ADIIS/DIIS
   @DF-RKS iter   2: -1190.57860785065736    5.61069e-01   1.61830e-02 ADIIS/DIIS
   @DF-RKS iter   3: -1191.58841583973845   -1.00981e+00   8.09697e-04 ADIIS/DIIS
   @DF-RKS iter   4: -1191.59136380405835   -2.94796e-03   2.58978e-04 ADIIS/DIIS
   @DF-RKS iter   5: -1191.59168616103466   -3.22357e-04   6.98972e-05 DIIS
   @DF-RKS iter   6: -1191.59171038696672   -2.42259e-05   1.14899e-05 DIIS
   @DF-RKS iter   7: -1191.59171117724782   -7.90281e-07   1.41810e-06 DIIS
   @DF-RKS iter   8: -1191.59171118750851   -1.02607e-08   3.90126e-07 DIIS
   @DF-RKS iter   9: -1191.59171118820086   -6.92353e-10   9.92772e-08 DIIS
  Energy and wave function converged.


  ==> Post-Iterations <==

   Electrons on quadrature grid:
      Ntotal   =   72.0000452472 ; deviation = 4.525e-05 

    Orbital Energies [Eh]
    ---------------------

    Doubly Occupied:                                                      

       1App  -77.087083     1Ap   -77.087080     2Ap   -77.087054  
       3Ap   -14.318592     2App  -14.318588     4Ap   -14.318555  
       3App   -6.579274     5Ap    -6.579272     6Ap    -6.579266  
       4App   -4.746332     7Ap    -4.746332     5App   -4.746328  
       8Ap    -4.744987     6App   -4.744984     9Ap    -4.744982  
      10Ap    -4.740284     7App   -4.740266    11Ap    -4.740263  
      12Ap    -0.907450    13Ap    -0.850026     8App   -0.850025  
       9App   -0.629868    14Ap    -0.629866    15Ap    -0.593196  
      10App   -0.472509    16Ap    -0.472508    11App   -0.454994  
      17Ap    -0.442497    12App   -0.394018    18Ap    -0.394017  
      19Ap    -0.338253    20Ap    -0.286899    21Ap    -0.268584  
      13App   -0.268583    14App   -0.236390    22Ap    -0.236388  

    Virtual:                                                              

      15App    0.009997    23Ap     0.009998    24Ap     0.029989  
      25Ap     0.063298    16App    0.089126    26Ap     0.089127  
      17App    0.105606    27Ap     0.105606    18App    0.112869  
      19App    0.147377    28Ap     0.147377    29Ap     0.151064  
      30Ap     0.297910    20App    0.353023    31Ap     0.353025  
      32Ap     0.375441    21App    0.410528    33Ap     0.410533  
      34Ap     0.444837    22App    0.444837    23App    0.461514  
      35Ap     0.492829    24App    0.521368    36Ap     0.521368  
      25App    0.555956    37Ap     0.555956    38Ap     0.562090  
      39Ap     0.578400    26App    0.596050    27App    0.614224  
      40Ap     0.614232    41Ap     0.640460    28App    0.662007  
      42Ap     0.662010    43Ap     0.723995    44Ap     0.724647  
      29App    0.724649    30App    0.831003    45Ap     0.831015  
      46Ap     0.862932    31App    0.893517    47Ap     0.893529  
      32App    0.897486    48Ap     0.929155    33App    0.958550  
      49Ap     0.958552    34App    0.979029    50Ap     0.979034  
      35App    1.022570    51Ap     1.022570    36App    1.051911  
      52Ap     1.062324    37App    1.062325    53Ap     1.078354  
      54Ap     1.250035    55Ap     1.280947    38App    1.280955  
      56Ap     1.468733    57Ap     1.514063    39App    1.514064  
      40App    1.540610    41App    1.622572    58Ap     1.622577  
      59Ap     1.644507    42App    1.644511    60Ap     1.684235  
      43App    1.798717    44App    1.833343    61Ap     1.833345  
      62Ap     2.082422    45App    2.089457    63Ap     2.089457  
      64Ap     2.147888    46App    2.147888    65Ap     2.185459  
      47App    2.369625    48App    2.421743    66Ap     2.421744  
      67Ap     2.485379    49App    2.485381    68Ap     2.501380  
      69Ap     2.598903    70Ap     2.609557    50App    2.609560  
      51App    2.684244    71Ap     2.684246    52App    2.736464  
      72Ap     3.197498    53App    3.240152    73Ap     3.240153  

    Final Occupation by Irrep:
             Ap   App 
    DOCC [    22,   14 ]
    NA   [    22,   14 ]
    NB   [    22,   14 ]

  @DF-RKS Final Energy: -1191.59171118820086

   => Energetics <=

    Nuclear Repulsion Energy =            478.7895195625082465
    One-Electron Energy =               -2596.4893958186685268
    Two-Electron Energy =                1001.0932361186947901
    DFT Exchange-Correlation Energy =     -74.9543233129035542
    Empirical Dispersion Energy =          -0.0307477378316239
    VV10 Nonlocal Energy =                  0.0000000000000000
    Total Energy =                      -1191.5917111882008612

Computation Completed


Properties will be evaluated at   0.000000,   0.000000,   0.000000 [a0]

Properties computed using the SCF density matrix


 Multipole Moments:

 ------------------------------------------------------------------------------------
     Multipole            Electronic (a.u.)      Nuclear  (a.u.)        Total (a.u.)
 ------------------------------------------------------------------------------------

 L = 1.  Multiply by 2.5417464519 to convert [e a0] to [Debye]
 Dipole X            :          0.0000189           -0.0000000            0.0000189
 Dipole Y            :          0.0000000            0.0000000            0.0000000
 Dipole Z            :          7.3477954           -7.9388208           -0.5910254
 Magnitude           :                                                    0.5910254

 ------------------------------------------------------------------------------------

*** tstop() called on choehoyun-ui-MacBookAir.local at Mon Aug 10 18:30:10 2026
Module time:
	user time   =       8.41 seconds =       0.14 minutes
	system time =       0.30 seconds =       0.01 minutes
	total time  =          2 seconds =       0.03 minutes
Total time:
	user time   =       8.41 seconds =       0.14 minutes
	system time =       0.30 seconds =       0.01 minutes
	total time  =          2 seconds =       0.03 minutes

    Psi4 stopped on: Monday, 10 August 2026 06:30PM
    Psi4 wall time for execution: 0:00:01.93

*** Psi4 exiting successfully. Buy a developer a beer!
