
    -----------------------------------------------------------------------
          Psi4: An Open-Source Ab Initio Electronic Structure Package
                               Psi4 1.11 release

                         Git: Rev {} zzzzzzz 


    D. G. A. Smith, L. A. Burns, A. C. Simmonett, R. M. Parrish,
    M. C. Schieber, R. Galvelis, P. Kraus, H. Kruse, R. Di Remigio,
    A. Alenaizan, A. M. James, S. Lehtola, J. P. Misiewicz, M. Scheurer,
    R. A. Shaw, J. B. Schriber, Y. Xie, Z. L. Glick, D. A. Sirianni,
    J. S. O'Brien, J. M. Waldrop, A. Kumar, E. G. Hohenstein,
    B. P. Pritchard, B. R. Brooks, H. F. Schaefer III, A. Yu. Sokolov,
    K. Patkowski, A. E. DePrince III, U. Bozkaya, R. A. King,
    F. A. Evangelista, J. M. Turney, T. D. Crawford, C. D. Sherrill,
    J. Chem. Phys. 152(18) 184108 (2020). https://doi.org/10.1063/5.0006002

                            Additional Code Authors
    E. T. Seidl, C. L. Janssen, E. F. Valeev, M. L. Leininger,
    J. F. Gonthier, R. M. Richard, H. R. McAlexander, M. Saitow, X. Wang,
    P. Verma, M. H. Lechner, A. Jiang, S. Behnle, A. G. Heide,
    M. F. Herbst, D. L. Poole, T. Győri, E. C. Mitchell, J. P. Pederson,
    and A. M. Wallace

             Previous Authors, Complete List of Code Contributors,
                       and Citations for Specific Modules
    https://github.com/psi4/psi4/blob/master/codemeta.json
    https://github.com/psi4/psi4/graphs/contributors
    https://psicode.org/psi4manual/master/introduction.html#citing-psifour

    -----------------------------------------------------------------------


    Psi4 started on: Monday, 10 August 2026 06:37PM

    Process ID: 75834
    Host:       choehoyun-ui-MacBookAir.local
    PSIDATADIR: /Users/hoyoun/micromamba/envs/psi4env/share/psi4
    Memory:     500.0 MiB
    Threads:    8
    Addons:     a̶d̶c̶c̶, a̶m̶b̶i̶t̶, b̶s̶e̶, c̶c̶t̶3̶, c̶f̶o̶u̶r̶, c̶h̶e̶m̶p̶s̶2̶, c̶p̶p̶e̶, d̶d̶x̶, dftd3,
                d̶f̶t̶d̶4̶, dkh, ecpint, einsums, f̶o̶r̶t̶e̶, gauxc, g̶c̶p̶, g̶d̶m̶a̶,
                g̶e̶o̶m̶e̶t̶r̶i̶c̶, g̶p̶u̶_̶d̶f̶c̶c̶, i̶n̶t̶e̶g̶r̶a̶t̶o̶r̶x̶x̶, i̶p̶i̶,
                l̶i̶b̶e̶f̶p̶, m̶d̶i̶, m̶p̶2̶d̶, m̶r̶c̶c̶, ooo, o̶p̶e̶n̶f̶e̶r̶m̶i̶o̶n̶p̶s̶i̶4̶,
                pcmsolver, p̶s̶i̶4̶f̶o̶c̶k̶c̶i̶, p̶s̶i̶x̶a̶s̶, p̶y̶e̶i̶n̶s̶u̶m̶s̶, r̶e̶s̶p̶,
                s̶i̶m̶i̶n̶t̶, s̶n̶s̶m̶p̶2̶, v̶2̶r̶d̶m̶_̶c̶a̶s̶s̶c̶f̶

  ==> Input File <==

--------------------------------------------------------------------------
memory 3 GB
molecule mol {
0 1
C -1.18455443385693 0.05411984370614 0.66525467160178
C -1.18455443385693 0.05411984370614 -0.66525467160178
C 0.20700826983235 -0.09163790097595 -1.23405591491365
C 1.11686390912263 0.14001714416689 0.00000000000000
C 0.20700826983235 -0.09163790097595 1.23405591491365
H -2.07035274727337 0.11036236044473 1.28679493026332
H -2.07035274727337 0.11036236044473 -1.28679493026332
H 0.41261707276560 0.61549628283167 -2.04247272571633
H 0.34320145049705 -1.09425687857554 -1.65862800792182
H 1.99856182083282 -0.50229068645863 0.00000000000000
H 1.46873504611515 1.17410612742965 0.00000000000000
H 0.41261707276560 0.61549628283167 2.04247272571633
H 0.34320145049705 -1.09425687857554 1.65862800792182
units angstrom
no_reorient
no_com
}
set basis def2-SVP
set scf_type df
set freeze_core true
set e_convergence 8
energy('b3lyp-d3bj')
--------------------------------------------------------------------------

  Memory set to   2.794 GiB by Python driver.

Scratch directory: /Users/hoyoun/Documents/Yonsei_AX_Camp/(진짜_이게_최종)/calibration/dft_work/_scratch/E8/
   => Libint2 <=

    Primary   basis highest AM E, G, H:  7, 6, 3
    Auxiliary basis highest AM E, G, H:  7, 7, 4
    Onebody   basis highest AM E, G, H:  -, -, -
    Solid Harmonics ordering:            Gaussian

*** tstart() called on choehoyun-ui-MacBookAir.local
*** at Mon Aug 10 18:37:17 2026

   => Loading Basis Set <=

    Name: DEF2-SVP
    Role: ORBITAL
    Keyword: BASIS
    atoms 1-5  entry C          line    90 file /Users/hoyoun/micromamba/envs/psi4env/share/psi4/basis/def2-svp.gbs 
    atoms 6-13 entry H          line    15 file /Users/hoyoun/micromamba/envs/psi4env/share/psi4/basis/def2-svp.gbs 

   => B3LYP-D3(BJ): Empirical Dispersion <=

    Grimme's -D3 (BJ-damping) Dispersion Correction
    Grimme S.; Ehrlich S.; Goerigk L. (2011), J. Comput. Chem., 32: 1456

        s6 =       1.000000
        s8 =       1.988900
        a1 =       0.398100
        a2 =       4.421100


         ---------------------------------------------------------
                                   SCF
               by Justin Turney, Rob Parrish, Andy Simmonett
                          and Daniel G. A. Smith
                              RKS Reference
                        8 Threads,   2861 MiB Core
         ---------------------------------------------------------

  ==> Geometry <==

    Molecular point group: cs
    Full point group: Cs

    Geometry (in Angstrom), charge = 0, multiplicity = 1:

       Center              X                  Y                   Z               Mass       
    ------------   -----------------  -----------------  -----------------  -----------------
         C           -1.184554433857     0.054119843706     0.665254671602    12.000000000000
         C           -1.184554433857     0.054119843706    -0.665254671602    12.000000000000
         C            0.207008269832    -0.091637900976    -1.234055914914    12.000000000000
         C            1.116863909123     0.140017144167     0.000000000000    12.000000000000
         C            0.207008269832    -0.091637900976     1.234055914914    12.000000000000
         H           -2.070352747273     0.110362360445     1.286794930263     1.007825032230
         H           -2.070352747273     0.110362360445    -1.286794930263     1.007825032230
         H            0.412617072766     0.615496282832    -2.042472725716     1.007825032230
         H            0.343201450497    -1.094256878576    -1.658628007922     1.007825032230
         H            1.998561820833    -0.502290686459     0.000000000000     1.007825032230
         H            1.468735046115     1.174106127430     0.000000000000     1.007825032230
         H            0.412617072766     0.615496282832     2.042472725716     1.007825032230
         H            0.343201450497    -1.094256878576     1.658628007922     1.007825032230

  Running in cs symmetry.

  Rotational constants: A =      0.24146  B =      0.23930  C =      0.13012 [cm^-1]
  Rotational constants: A =   7238.87151  B =   7174.04673  C =   3900.86395 [MHz]
  Nuclear repulsion =  171.226575808626762

  Charge       = 0
  Multiplicity = 1
  Electrons    = 38
  Nalpha       = 19
  Nbeta        = 19

  ==> Algorithm <==

  SCF Algorithm Type is DF.
  DIIS enabled.
  MOM disabled.
  Fractional occupation disabled.
  Guess Type is SAD.
  Energy threshold   = 1.00e-08
  Density threshold  = 1.00e-06
  Integral threshold = 1.00e-12

  ==> Primary Basis <==

  Basis Set: DEF2-SVP
    Blend: DEF2-SVP
    Number of shells: 54
    Number of basis functions: 110
    Number of Cartesian functions: 115
    Spherical Harmonics?: true
    Max angular momentum: 2

  ==> DFT Potential <==

   => LibXC <=

    Version 7.1.2
    S. Lehtola, C. Steigemann, M. J. T. Oliveira, and M. A. L. Marques,  SoftwareX 7, 1–5 (2018) (10.1016/j.softx.2017.11.002)

   => Composite Functional: B3LYP-D3BJ2B <= 

    B3LYP-d3bj2b Hyb-GGA Exchange-Correlation Functional

    P. J. Stephens, F. J. Devlin, C. F. Chabalowski, and M. J. Frisch,  J. Phys. Chem. 98, 11623 (1994) (10.1021/j100096a001)

    Deriv               =              1
    GGA                 =           TRUE
    Meta                =          FALSE

    Exchange Hybrid     =           TRUE
    MP2 Hybrid          =          FALSE

   => Exchange Functionals <=

    0.0800   Slater exchange
    0.7200         Becke 88

   => Exact (HF) Exchange <=

    0.2000               HF 

   => Correlation Functionals <=

    0.1900   Vosko, Wilk & Nusair (VWN5_RPA)
    0.8100   Lee, Yang & Parr

   => LibXC Density Thresholds  <==

    XC_HYB_GGA_XC_B3LYP:  1.00E-15 

   => Molecular Quadrature <=

    Radial Scheme          =       TREUTLER
    Pruning Scheme         =           NONE
    Nuclear Scheme         =       TREUTLER

    Blocking Scheme        =         OCTREE
    BS radius alpha        =              1
    Pruning alpha          =              1
    Radial Points          =             75
    Spherical Points       =            302
    Total Points           =         275305
    Total Blocks           =           2134
    Max Points             =            256
    Max Functions          =            110
    Weights Tolerance      =       1.00E-15

   => Loading Basis Set <=

    Name: (DEF2-SVP AUX)
    Role: JKFIT
    Keyword: DF_BASIS_SCF
    atoms 1-5  entry C          line   198 file /Users/hoyoun/micromamba/envs/psi4env/share/psi4/basis/def2-universal-jkfit.gbs 
    atoms 6-13 entry H          line    18 file /Users/hoyoun/micromamba/envs/psi4env/share/psi4/basis/def2-universal-jkfit.gbs 

  ==> Integral Setup <==

  DFHelper Memory: AOs need 0.052 GiB; user supplied 1.340 GiB. 
  SCF_SUBTYPE=INCORE selected. In-core MEM_DF algorithm will be used.
  Using in-core AOs.

  ==> MemDFJK: Density-Fitted J/K Matrices <==

    J tasked:                   Yes
    K tasked:                   Yes
    wK tasked:                   No
    OpenMP threads:               8
    Memory [MiB]:              1372
    Algorithm:                 Core
    Schwarz Cutoff:           1E-12
    Mask sparsity (%):       0.1488
    Fitting Condition:        1E-10

   => Auxiliary Basis Set <=

  Basis Set: (DEF2-SVP AUX)
    Blend: DEF2-UNIVERSAL-JKFIT
    Number of shells: 173
    Number of basis functions: 519
    Number of Cartesian functions: 605
    Spherical Harmonics?: true
    Max angular momentum: 4

  Cached 100.0% of DFT collocation blocks in 0.755 [GiB].

  Minimum eigenvalue in the overlap matrix is 1.3272175663E-03.
  Reciprocal condition number of the overlap matrix is 2.2194022941E-04.
    Using symmetric orthogonalization.

  ==> Pre-Iterations <==

  SCF Guess: Superposition of Atomic Densities via on-the-fly atomic UHF (no occupation information).

   -------------------------
    Irrep   Nso     Nmo    
   -------------------------
     A'        61      61 
     A"        49      49 
   -------------------------
    Total     110     110
   -------------------------

  ==> Iterations <==

                           Total Energy        Delta E     RMS |[F,P]|

   @DF-RKS iter SAD:  -194.79492690239996   -1.94795e+02   0.00000e+00 
   @DF-RKS iter   1:  -194.77169042740050    2.32365e-02   1.09420e-02 ADIIS/DIIS
   @DF-RKS iter   2:  -194.48968846357965    2.82002e-01   1.45256e-02 ADIIS/DIIS
   @DF-RKS iter   3:  -195.20202745238777   -7.12339e-01   7.04650e-04 ADIIS/DIIS
   @DF-RKS iter   4:  -195.20328066477316   -1.25321e-03   2.29405e-04 ADIIS/DIIS
   @DF-RKS iter   5:  -195.20340840611965   -1.27741e-04   1.09354e-04 ADIIS/DIIS
   @DF-RKS iter   6:  -195.20344707137917   -3.86653e-05   8.30748e-06 DIIS
   @DF-RKS iter   7:  -195.20344730107632   -2.29697e-07   1.49948e-06 DIIS
   @DF-RKS iter   8:  -195.20344730679776   -5.72143e-09   6.04748e-07 DIIS
  Energy and wave function converged.


  ==> Post-Iterations <==

   Electrons on quadrature grid:
      Ntotal   =   37.9999620849 ; deviation = -3.792e-05 

    Orbital Energies [Eh]
    ---------------------

    Doubly Occupied:                                                      

       1App  -10.181314     1Ap   -10.181304     2Ap   -10.179281  
       3Ap   -10.176444     2App  -10.175695     4Ap    -0.831733  
       5Ap    -0.698356     3App   -0.695951     6Ap    -0.567120  
       4App   -0.521790     7Ap    -0.495385     8Ap    -0.465326  
       5App   -0.397107     9Ap    -0.379335    10Ap    -0.349599  
       6App   -0.347471    11Ap    -0.342520     7App   -0.340347  
      12Ap    -0.241471  

    Virtual:                                                              

       8App    0.022560    13Ap     0.060675    14Ap     0.092374  
      15Ap     0.104683     9App    0.105040    16Ap     0.132424  
      10App    0.138999    11App    0.151072    17Ap     0.181669  
      18Ap     0.188975    12App    0.200292    19Ap     0.272398  
      13App    0.316244    14App    0.393608    20Ap     0.396437  
      21Ap     0.430302    22Ap     0.464479    23Ap     0.478101  
      15App    0.491378    16App    0.504481    24Ap     0.532531  
      25Ap     0.575192    17App    0.597019    26Ap     0.613755  
      18App    0.615239    27Ap     0.630389    19App    0.630830  
      28Ap     0.660485    29Ap     0.672597    20App    0.677060  
      30Ap     0.685382    21App    0.694818    31Ap     0.706306  
      22App    0.722077    32Ap     0.732586    23App    0.743047  
      33Ap     0.794129    24App    0.843602    34Ap     0.879029  
      25App    0.998958    35Ap     1.091977    26App    1.134918  
      27App    1.202931    36Ap     1.283819    37Ap     1.307945  
      28App    1.356422    38Ap     1.411720    39Ap     1.557369  
      29App    1.558693    30App    1.613488    40Ap     1.664550  
      41Ap     1.689646    31App    1.706768    42Ap     1.728847  
      43Ap     1.766366    44Ap     1.789064    32App    1.789535  
      45Ap     1.803624    33App    1.829129    34App    1.861416  
      46Ap     1.877624    35App    1.913204    47Ap     1.919006  
      36App    1.957656    48Ap     1.961631    37App    1.977169  
      49Ap     2.025986    38App    2.056280    50Ap     2.119905  
      51Ap     2.148537    39App    2.196125    52Ap     2.281514  
      53Ap     2.319657    40App    2.341013    54Ap     2.414973  
      41App    2.443469    42App    2.473325    43App    2.516336  
      55Ap     2.581235    56Ap     2.643580    44App    2.648497  
      45App    2.721278    57Ap     2.746044    58Ap     2.798505  
      46App    2.855950    59Ap     2.934433    60Ap     2.976082  
      47App    2.998730    48App    3.030904    61Ap     3.071165  
      49App    3.332883  

    Final Occupation by Irrep:
             Ap   App 
    DOCC [    12,    7 ]
    NA   [    12,    7 ]
    NB   [    12,    7 ]

  @DF-RKS Final Energy:  -195.20344730679776

   => Energetics <=

    Nuclear Repulsion Energy =            171.2265758086267624
    One-Electron Energy =                -600.1796301968859098
    Two-Electron Energy =                 258.1245905916757692
    DFT Exchange-Correlation Energy =     -24.3579286764076031
    Empirical Dispersion Energy =          -0.0170548338067609
    VV10 Nonlocal Energy =                  0.0000000000000000
    Total Energy =                       -195.2034473067977274

Computation Completed


Properties will be evaluated at   0.000000,   0.000000,   0.000000 [a0]

Properties computed using the SCF density matrix


 Multipole Moments:

 ------------------------------------------------------------------------------------
     Multipole            Electronic (a.u.)      Nuclear  (a.u.)        Total (a.u.)
 ------------------------------------------------------------------------------------

 L = 1.  Multiply by 2.5417464519 to convert [e a0] to [Debye]
 Dipole X            :          7.9819681           -7.9201107            0.0618574
 Dipole Y            :         -0.6433179            0.6139817           -0.0293362
 Dipole Z            :          0.0000000            0.0000000            0.0000000
 Magnitude           :                                                    0.0684613

 ------------------------------------------------------------------------------------

*** tstop() called on choehoyun-ui-MacBookAir.local at Mon Aug 10 18:37:19 2026
Module time:
	user time   =       7.52 seconds =       0.13 minutes
	system time =       0.24 seconds =       0.00 minutes
	total time  =          2 seconds =       0.03 minutes
Total time:
	user time   =       7.52 seconds =       0.13 minutes
	system time =       0.24 seconds =       0.00 minutes
	total time  =          2 seconds =       0.03 minutes

    Psi4 stopped on: Monday, 10 August 2026 06:37PM
    Psi4 wall time for execution: 0:00:01.65

*** Psi4 exiting successfully. Buy a developer a beer!
