
    -----------------------------------------------------------------------
          Psi4: An Open-Source Ab Initio Electronic Structure Package
                               Psi4 1.11 release

                         Git: Rev {} zzzzzzz 


    D. G. A. Smith, L. A. Burns, A. C. Simmonett, R. M. Parrish,
    M. C. Schieber, R. Galvelis, P. Kraus, H. Kruse, R. Di Remigio,
    A. Alenaizan, A. M. James, S. Lehtola, J. P. Misiewicz, M. Scheurer,
    R. A. Shaw, J. B. Schriber, Y. Xie, Z. L. Glick, D. A. Sirianni,
    J. S. O'Brien, J. M. Waldrop, A. Kumar, E. G. Hohenstein,
    B. P. Pritchard, B. R. Brooks, H. F. Schaefer III, A. Yu. Sokolov,
    K. Patkowski, A. E. DePrince III, U. Bozkaya, R. A. King,
    F. A. Evangelista, J. M. Turney, T. D. Crawford, C. D. Sherrill,
    J. Chem. Phys. 152(18) 184108 (2020). https://doi.org/10.1063/5.0006002

                            Additional Code Authors
    E. T. Seidl, C. L. Janssen, E. F. Valeev, M. L. Leininger,
    J. F. Gonthier, R. M. Richard, H. R. McAlexander, M. Saitow, X. Wang,
    P. Verma, M. H. Lechner, A. Jiang, S. Behnle, A. G. Heide,
    M. F. Herbst, D. L. Poole, T. Győri, E. C. Mitchell, J. P. Pederson,
    and A. M. Wallace

             Previous Authors, Complete List of Code Contributors,
                       and Citations for Specific Modules
    https://github.com/psi4/psi4/blob/master/codemeta.json
    https://github.com/psi4/psi4/graphs/contributors
    https://psicode.org/psi4manual/master/introduction.html#citing-psifour

    -----------------------------------------------------------------------


    Psi4 started on: Sunday, 09 August 2026 04:10PM

    Process ID: 61350
    Host:       choehoyun-ui-MacBookAir.local
    PSIDATADIR: /Users/hoyoun/micromamba/envs/psi4env/share/psi4
    Memory:     500.0 MiB
    Threads:    8
    Addons:     a̶d̶c̶c̶, a̶m̶b̶i̶t̶, b̶s̶e̶, c̶c̶t̶3̶, c̶f̶o̶u̶r̶, c̶h̶e̶m̶p̶s̶2̶, c̶p̶p̶e̶, d̶d̶x̶, dftd3,
                d̶f̶t̶d̶4̶, dkh, ecpint, einsums, f̶o̶r̶t̶e̶, gauxc, g̶c̶p̶, g̶d̶m̶a̶,
                g̶e̶o̶m̶e̶t̶r̶i̶c̶, g̶p̶u̶_̶d̶f̶c̶c̶, i̶n̶t̶e̶g̶r̶a̶t̶o̶r̶x̶x̶, i̶p̶i̶,
                l̶i̶b̶e̶f̶p̶, m̶d̶i̶, m̶p̶2̶d̶, m̶r̶c̶c̶, ooo, o̶p̶e̶n̶f̶e̶r̶m̶i̶o̶n̶p̶s̶i̶4̶,
                pcmsolver, p̶s̶i̶4̶f̶o̶c̶k̶c̶i̶, p̶s̶i̶x̶a̶s̶, p̶y̶e̶i̶n̶s̶u̶m̶s̶, r̶e̶s̶p̶,
                s̶i̶m̶i̶n̶t̶, s̶n̶s̶m̶p̶2̶, v̶2̶r̶d̶m̶_̶c̶a̶s̶s̶c̶f̶

  ==> Input File <==

--------------------------------------------------------------------------
memory 3 GB
molecule mol {
0 1
C 2.45740190241855 0.85677174684313 0.67414379825202
C 1.73396695373011 -0.47819015855292 0.48043981213947
C 0.59592103481053 -0.40966516315127 -0.55012511503545
C -0.67962387489650 0.28801078725388 -0.03651015128246
C -1.79242879599181 -0.75749913836925 -0.24949213621472
O -2.76777772671065 -0.65320114596065 0.78499279021485
C -1.01099385112825 -2.07658404465464 -0.24485413662006
O 3.14006385390060 1.26462271792223 -0.50157511839589
O -0.85425086221525 1.50125970101406 -0.74295510095375
O 2.72522188352912 -1.41010509218052 0.04739084258873
O 0.21467106180468 -1.76357706692722 -0.90866408910826
C -1.84461979219758 2.36617963978471 -0.19671113969860
H 3.15689685291859 0.75289675435477 1.51668773848558
H 1.74356295325816 1.64956269071650 0.91732478094193
H 1.32385298276743 -0.79947513582546 1.45281774302566
H 0.95182700935226 0.07890180217310 -1.46035905030768
H -0.61758487915390 0.49355277238043 1.04536677170850
H -2.24361276381215 -0.58404615080163 -1.23585406597551
H -3.53304567223925 -1.19943410720911 0.56321180643119
H -1.49313581716738 -2.88617798743155 -0.80042009685193
H -0.84336386344227 -2.40488402152277 0.79259379007026
H 3.66855381654034 0.50550077199045 -0.79100509762627
H 2.25474891688240 -2.14937603985851 -0.36934512763457
H -2.84907272073041 1.92916667042341 -0.25509613557845
H -1.62635080780554 2.60184962296254 0.85502178556812
H -1.81082779442180 3.28393957462624 -0.78702509814274
units angstrom
no_reorient
no_com
}
set basis def2-TZVP
set scf_type df
set freeze_core true
set e_convergence 8
energy('b3lyp-d3bj')
--------------------------------------------------------------------------

  Memory set to   2.794 GiB by Python driver.

Scratch directory: /Users/hoyoun/Documents/Yonsei_AX_Camp/(진짜_이게_최종)/calibration/dft_work/_scratch/C14/
   => Libint2 <=

    Primary   basis highest AM E, G, H:  7, 6, 3
    Auxiliary basis highest AM E, G, H:  7, 7, 4
    Onebody   basis highest AM E, G, H:  -, -, -
    Solid Harmonics ordering:            Gaussian

*** tstart() called on choehoyun-ui-MacBookAir.local
*** at Sun Aug  9 16:10:33 2026

   => Loading Basis Set <=

    Name: DEF2-TZVP
    Role: ORBITAL
    Keyword: BASIS
    atoms 1-5, 7, 12 entry C          line   123 file /Users/hoyoun/micromamba/envs/psi4env/share/psi4/basis/def2-tzvp.gbs 
    atoms 6, 8-11    entry O          line   189 file /Users/hoyoun/micromamba/envs/psi4env/share/psi4/basis/def2-tzvp.gbs 
    atoms 13-26      entry H          line    15 file /Users/hoyoun/micromamba/envs/psi4env/share/psi4/basis/def2-tzvp.gbs 

   => B3LYP-D3(BJ): Empirical Dispersion <=

    Grimme's -D3 (BJ-damping) Dispersion Correction
    Grimme S.; Ehrlich S.; Goerigk L. (2011), J. Comput. Chem., 32: 1456

        s6 =       1.000000
        s8 =       1.988900
        a1 =       0.398100
        a2 =       4.421100


         ---------------------------------------------------------
                                   SCF
               by Justin Turney, Rob Parrish, Andy Simmonett
                          and Daniel G. A. Smith
                              RKS Reference
                        8 Threads,   2861 MiB Core
         ---------------------------------------------------------

  ==> Geometry <==

    Molecular point group: c1
    Full point group: C1

    Geometry (in Angstrom), charge = 0, multiplicity = 1:

       Center              X                  Y                   Z               Mass       
    ------------   -----------------  -----------------  -----------------  -----------------
         C            2.457401902419     0.856771746843     0.674143798252    12.000000000000
         C            1.733966953730    -0.478190158553     0.480439812139    12.000000000000
         C            0.595921034811    -0.409665163151    -0.550125115035    12.000000000000
         C           -0.679623874897     0.288010787254    -0.036510151282    12.000000000000
         C           -1.792428795992    -0.757499138369    -0.249492136215    12.000000000000
         O           -2.767777726711    -0.653201145961     0.784992790215    15.994914619570
         C           -1.010993851128    -2.076584044655    -0.244854136620    12.000000000000
         O            3.140063853901     1.264622717922    -0.501575118396    15.994914619570
         O           -0.854250862215     1.501259701014    -0.742955100954    15.994914619570
         O            2.725221883529    -1.410105092181     0.047390842589    15.994914619570
         O            0.214671061805    -1.763577066927    -0.908664089108    15.994914619570
         C           -1.844619792198     2.366179639785    -0.196711139699    12.000000000000
         H            3.156896852919     0.752896754355     1.516687738486     1.007825032230
         H            1.743562953258     1.649562690716     0.917324780942     1.007825032230
         H            1.323852982767    -0.799475135825     1.452817743026     1.007825032230
         H            0.951827009352     0.078901802173    -1.460359050308     1.007825032230
         H           -0.617584879154     0.493552772380     1.045366771709     1.007825032230
         H           -2.243612763812    -0.584046150802    -1.235854065976     1.007825032230
         H           -3.533045672239    -1.199434107209     0.563211806431     1.007825032230
         H           -1.493135817167    -2.886177987432    -0.800420096852     1.007825032230
         H           -0.843363863442    -2.404884021523     0.792593790070     1.007825032230
         H            3.668553816540     0.505500771990    -0.791005097626     1.007825032230
         H            2.254748916882    -2.149376039859    -0.369345127635     1.007825032230
         H           -2.849072720730     1.929166670423    -0.255096135578     1.007825032230
         H           -1.626350807806     2.601849622963     0.855021785568     1.007825032230
         H           -1.810827794422     3.283939574626    -0.787025098143     1.007825032230

  Running in c1 symmetry.

  Rotational constants: A =      0.04209  B =      0.02234  C =      0.01640 [cm^-1]
  Rotational constants: A =   1261.83038  B =    669.64227  C =    491.55613 [MHz]
  Nuclear repulsion =  812.043762990603227

  Charge       = 0
  Multiplicity = 1
  Electrons    = 96
  Nalpha       = 48
  Nbeta        = 48

  ==> Algorithm <==

  SCF Algorithm Type is DF.
  DIIS enabled.
  MOM disabled.
  Fractional occupation disabled.
  Guess Type is SAD.
  Energy threshold   = 1.00e-08
  Density threshold  = 1.00e-06
  Integral threshold = 1.00e-12

  ==> Primary Basis <==

  Basis Set: DEF2-TZVP
    Blend: DEF2-TZVP
    Number of shells: 188
    Number of basis functions: 456
    Number of Cartesian functions: 516
    Spherical Harmonics?: true
    Max angular momentum: 3

  ==> DFT Potential <==

   => LibXC <=

    Version 7.1.2
    S. Lehtola, C. Steigemann, M. J. T. Oliveira, and M. A. L. Marques,  SoftwareX 7, 1–5 (2018) (10.1016/j.softx.2017.11.002)

   => Composite Functional: B3LYP-D3BJ2B <= 

    B3LYP-d3bj2b Hyb-GGA Exchange-Correlation Functional

    P. J. Stephens, F. J. Devlin, C. F. Chabalowski, and M. J. Frisch,  J. Phys. Chem. 98, 11623 (1994) (10.1021/j100096a001)

    Deriv               =              1
    GGA                 =           TRUE
    Meta                =          FALSE

    Exchange Hybrid     =           TRUE
    MP2 Hybrid          =          FALSE

   => Exchange Functionals <=

    0.0800   Slater exchange
    0.7200         Becke 88

   => Exact (HF) Exchange <=

    0.2000               HF 

   => Correlation Functionals <=

    0.1900   Vosko, Wilk & Nusair (VWN5_RPA)
    0.8100   Lee, Yang & Parr

   => LibXC Density Thresholds  <==

    XC_HYB_GGA_XC_B3LYP:  1.00E-15 

   => Molecular Quadrature <=

    Radial Scheme          =       TREUTLER
    Pruning Scheme         =           NONE
    Nuclear Scheme         =       TREUTLER

    Blocking Scheme        =         OCTREE
    BS radius alpha        =              1
    Pruning alpha          =              1
    Radial Points          =             75
    Spherical Points       =            302
    Total Points           =         540676
    Total Blocks           =           3941
    Max Points             =            256
    Max Functions          =            388
    Weights Tolerance      =       1.00E-15

   => Loading Basis Set <=

    Name: (DEF2-TZVP AUX)
    Role: JKFIT
    Keyword: DF_BASIS_SCF
    atoms 1-5, 7, 12 entry C          line   198 file /Users/hoyoun/micromamba/envs/psi4env/share/psi4/basis/def2-universal-jkfit.gbs 
    atoms 6, 8-11    entry O          line   318 file /Users/hoyoun/micromamba/envs/psi4env/share/psi4/basis/def2-universal-jkfit.gbs 
    atoms 13-26      entry H          line    18 file /Users/hoyoun/micromamba/envs/psi4env/share/psi4/basis/def2-universal-jkfit.gbs 

  ==> Integral Setup <==

  DFHelper Memory: AOs need 1.607 GiB; user supplied 1.607 GiB. 
  SCF_SUBTYPE=INCORE selected. In-core MEM_DF algorithm will be used.
  Using in-core AOs.

  ==> MemDFJK: Density-Fitted J/K Matrices <==

    J tasked:                   Yes
    K tasked:                   Yes
    wK tasked:                   No
    OpenMP threads:               8
    Memory [MiB]:              1645
    Algorithm:                 Core
    Schwarz Cutoff:           1E-12
    Mask sparsity (%):      14.3015
    Fitting Condition:        1E-10

   => Auxiliary Basis Set <=

  Basis Set: (DEF2-TZVP AUX)
    Blend: DEF2-UNIVERSAL-JKFIT
    Number of shells: 384
    Number of basis functions: 1162
    Number of Cartesian functions: 1368
    Spherical Harmonics?: true
    Max angular momentum: 4

  Cached 11.1% of DFT collocation blocks in 0.436 [GiB].

  Minimum eigenvalue in the overlap matrix is 4.0324005168E-05.
  Reciprocal condition number of the overlap matrix is 3.8131298249E-06.
    Using symmetric orthogonalization.

  ==> Pre-Iterations <==

  SCF Guess: Superposition of Atomic Densities via on-the-fly atomic UHF (no occupation information).

   -------------------------
    Irrep   Nso     Nmo    
   -------------------------
     A        456     456 
   -------------------------
    Total     456     456
   -------------------------

  ==> Iterations <==

                           Total Energy        Delta E     RMS |[F,P]|

   @DF-RKS iter SAD:  -650.76843665180650   -6.50768e+02   0.00000e+00 
   @DF-RKS iter   1:  -650.75158697923712    1.68497e-02   2.96899e-03 DIIS/ADIIS
   @DF-RKS iter   2:  -650.14857585442621    6.03011e-01   3.99776e-03 DIIS/ADIIS
   @DF-RKS iter   3:  -651.53707274184762   -1.38850e+00   4.85568e-04 DIIS/ADIIS
   @DF-RKS iter   4:  -651.55135904731628   -1.42863e-02   2.30254e-04 DIIS/ADIIS
   @DF-RKS iter   5:  -651.55550494280646   -4.14590e-03   4.31503e-05 DIIS
   @DF-RKS iter   6:  -651.55562892490639   -1.23982e-04   1.87163e-05 DIIS
   @DF-RKS iter   7:  -651.55565752319148   -2.85983e-05   3.69626e-06 DIIS
   @DF-RKS iter   8:  -651.55565826948350   -7.46292e-07   1.69638e-06 DIIS
   @DF-RKS iter   9:  -651.55565849840491   -2.28921e-07   2.69298e-07 DIIS
   @DF-RKS iter  10:  -651.55565850425023   -5.84532e-09   8.20352e-08 DIIS
  Energy and wave function converged.


  ==> Post-Iterations <==

   Electrons on quadrature grid:
      Ntotal   =   95.9999124825 ; deviation = -8.752e-05 

    Orbital Energies [Eh]
    ---------------------

    Doubly Occupied:                                                      

       1A    -19.149413     2A    -19.146457     3A    -19.140273  
       4A    -19.129849     5A    -19.118316     6A    -10.240379  
       7A    -10.238106     8A    -10.232336     9A    -10.229863  
      10A    -10.228762    11A    -10.217468    12A    -10.217402  
      13A     -1.065048    14A     -1.045329    15A     -1.038166  
      16A     -1.029708    17A     -1.007132    18A     -0.794158  
      19A     -0.770865    20A     -0.726066    21A     -0.684071  
      22A     -0.636765    23A     -0.606161    24A     -0.595074  
      25A     -0.557033    26A     -0.529501    27A     -0.522103  
      28A     -0.494403    29A     -0.488103    30A     -0.480595  
      31A     -0.467356    32A     -0.450483    33A     -0.439477  
      34A     -0.426652    35A     -0.418948    36A     -0.417348  
      37A     -0.408899    38A     -0.395556    39A     -0.362823  
      40A     -0.356245    41A     -0.350929    42A     -0.334256  
      43A     -0.327223    44A     -0.307189    45A     -0.298038  
      46A     -0.279379    47A     -0.270318    48A     -0.260994  

    Virtual:                                                              

      49A      0.006929    50A      0.027443    51A      0.036046  
      52A      0.050347    53A      0.053411    54A      0.072379  
      55A      0.080083    56A      0.085076    57A      0.093403  
      58A      0.097470    59A      0.109423    60A      0.115282  
      61A      0.122437    62A      0.124702    63A      0.130235  
      64A      0.136001    65A      0.148833    66A      0.150624  
      67A      0.161122    68A      0.171757    69A      0.180261  
      70A      0.186961    71A      0.199407    72A      0.211965  
      73A      0.220264    74A      0.231798    75A      0.248382  
      76A      0.254218    77A      0.269858    78A      0.294295  
      79A      0.296423    80A      0.301959    81A      0.313928  
      82A      0.323166    83A      0.326657    84A      0.331511  
      85A      0.339992    86A      0.347829    87A      0.349421  
      88A      0.351583    89A      0.370923    90A      0.375715  
      91A      0.379388    92A      0.384433    93A      0.389248  
      94A      0.393929    95A      0.409868    96A      0.413025  
      97A      0.419759    98A      0.422520    99A      0.429290  
     100A      0.437389   101A      0.443157   102A      0.451686  
     103A      0.457951   104A      0.460645   105A      0.463956  
     106A      0.474688   107A      0.480968   108A      0.482367  
     109A      0.491341   110A      0.502410   111A      0.510746  
     112A      0.524732   113A      0.526832   114A      0.542254  
     115A      0.554399   116A      0.575204   117A      0.583657  
     118A      0.604934   119A      0.614649   120A      0.623796  
     121A      0.631561   122A      0.649432   123A      0.660072  
     124A      0.663051   125A      0.680708   126A      0.695418  
     127A      0.704876   128A      0.712523   129A      0.745658  
     130A      0.767074   131A      0.779607   132A      0.787079  
     133A      0.789914   134A      0.808212   135A      0.826427  
     136A      0.840078   137A      0.857387   138A      0.863679  
     139A      0.875315   140A      0.884183   141A      0.902694  
     142A      0.917984   143A      0.930370   144A      0.944475  
     145A      0.949048   146A      0.958912   147A      0.970281  
     148A      1.002151   149A      1.016014   150A      1.033023  
     151A      1.039713   152A      1.044126   153A      1.062103  
     154A      1.077209   155A      1.087622   156A      1.096799  
     157A      1.111213   158A      1.124040   159A      1.154274  
     160A      1.169929   161A      1.172995   162A      1.198629  
     163A      1.211620   164A      1.218418   165A      1.251256  
     166A      1.271904   167A      1.284642   168A      1.296750  
     169A      1.335321   170A      1.342959   171A      1.371100  
     172A      1.405739   173A      1.429196   174A      1.444245  
     175A      1.457893   176A      1.474632   177A      1.476874  
     178A      1.484448   179A      1.509784   180A      1.519208  
     181A      1.521611   182A      1.527128   183A      1.537731  
     184A      1.546826   185A      1.567186   186A      1.569678  
     187A      1.594060   188A      1.598588   189A      1.613435  
     190A      1.621763   191A      1.624013   192A      1.642428  
     193A      1.649903   194A      1.672091   195A      1.696627  
     196A      1.715169   197A      1.731729   198A      1.746729  
     199A      1.751828   200A      1.765997   201A      1.770845  
     202A      1.788810   203A      1.811984   204A      1.828255  
     205A      1.833963   206A      1.843896   207A      1.863483  
     208A      1.881837   209A      1.889629   210A      1.893627  
     211A      1.911140   212A      1.917472   213A      1.922928  
     214A      1.949651   215A      1.959692   216A      1.985196  
     217A      1.995750   218A      2.016139   219A      2.032797  
     220A      2.052193   221A      2.053421   222A      2.077268  
     223A      2.086141   224A      2.100851   225A      2.114287  
     226A      2.133204   227A      2.136883   228A      2.146843  
     229A      2.160792   230A      2.169411   231A      2.186159  
     232A      2.215794   233A      2.224246   234A      2.237588  
     235A      2.243173   236A      2.261336   237A      2.275781  
     238A      2.281692   239A      2.294176   240A      2.302617  
     241A      2.319552   242A      2.327894   243A      2.333412  
     244A      2.339829   245A      2.360608   246A      2.368728  
     247A      2.380604   248A      2.408621   249A      2.427893  
     250A      2.451773   251A      2.466515   252A      2.480549  
     253A      2.496599   254A      2.506630   255A      2.510887  
     256A      2.524214   257A      2.538332   258A      2.548555  
     259A      2.561373   260A      2.565273   261A      2.574438  
     262A      2.601788   263A      2.613923   264A      2.639022  
     265A      2.647148   266A      2.668323   267A      2.680999  
     268A      2.686232   269A      2.695075   270A      2.707402  
     271A      2.716311   272A      2.726655   273A      2.748214  
     274A      2.780327   275A      2.782626   276A      2.794328  
     277A      2.803322   278A      2.829141   279A      2.848120  
     280A      2.856561   281A      2.885338   282A      2.901418  
     283A      2.906491   284A      2.922594   285A      2.931619  
     286A      2.937034   287A      2.962014   288A      2.968339  
     289A      2.992033   290A      3.016584   291A      3.021214  
     292A      3.043893   293A      3.064395   294A      3.089955  
     295A      3.111532   296A      3.123587   297A      3.139165  
     298A      3.155295   299A      3.163776   300A      3.169269  
     301A      3.173812   302A      3.181372   303A      3.208082  
     304A      3.213876   305A      3.227229   306A      3.237428  
     307A      3.257359   308A      3.265307   309A      3.286871  
     310A      3.301067   311A      3.305671   312A      3.324777  
     313A      3.331073   314A      3.334472   315A      3.349736  
     316A      3.373194   317A      3.384039   318A      3.389370  
     319A      3.420434   320A      3.421638   321A      3.427648  
     322A      3.462229   323A      3.474090   324A      3.484019  
     325A      3.498381   326A      3.518184   327A      3.530360  
     328A      3.546891   329A      3.559180   330A      3.571161  
     331A      3.575653   332A      3.585018   333A      3.623581  
     334A      3.640996   335A      3.658857   336A      3.680849  
     337A      3.687063   338A      3.706562   339A      3.720981  
     340A      3.774229   341A      3.795634   342A      3.805902  
     343A      3.819504   344A      3.871535   345A      3.874328  
     346A      3.885320   347A      3.918640   348A      3.945889  
     349A      3.973895   350A      3.980650   351A      3.998011  
     352A      4.031587   353A      4.040839   354A      4.073881  
     355A      4.082852   356A      4.107487   357A      4.126136  
     358A      4.147595   359A      4.179334   360A      4.202839  
     361A      4.248375   362A      4.262162   363A      4.309176  
     364A      4.338470   365A      4.357507   366A      4.372135  
     367A      4.389379   368A      4.430349   369A      4.459705  
     370A      4.476434   371A      4.520658   372A      4.589253  
     373A      4.609508   374A      4.621839   375A      4.684373  
     376A      4.729155   377A      4.736909   378A      4.769006  
     379A      4.827371   380A      4.890555   381A      4.939390  
     382A      4.972226   383A      4.988022   384A      5.042599  
     385A      5.236828   386A      5.261580   387A      5.295621  
     388A      5.331726   389A      5.339710   390A      5.350936  
     391A      5.378126   392A      5.389209   393A      5.413821  
     394A      5.452684   395A      5.460930   396A      5.465624  
     397A      5.485994   398A      5.698425   399A      5.716391  
     400A      5.724612   401A      5.740308   402A      5.750496  
     403A      5.761537   404A      5.782797   405A      5.788045  
     406A      5.814417   407A      5.828405   408A      5.862702  
     409A      5.875811   410A      5.898430   411A      5.925661  
     412A      5.970139   413A      6.114076   414A      6.120395  
     415A      6.169513   416A      6.191667   417A      6.250538  
     418A      6.265137   419A      6.271414   420A      6.454612  
     421A      6.458529   422A      6.475950   423A      6.673984  
     424A      6.686988   425A      6.697720   426A      6.704027  
     427A      6.733724   428A      6.760420   429A      6.764596  
     430A      6.784618   431A      6.811404   432A      6.839597  
     433A      6.911047   434A      6.915871   435A      6.969415  
     436A      6.980333   437A      7.028351   438A      7.138806  
     439A      7.146050   440A      7.170654   441A      7.199894  
     442A      7.243314   443A      7.264228   444A      7.333692  
     445A     22.286362   446A     22.335465   447A     22.407303  
     448A     22.542379   449A     22.574465   450A     22.621747  
     451A     22.711242   452A     43.795243   453A     43.933799  
     454A     43.966923   455A     44.215661   456A     44.242772  

    Final Occupation by Irrep:
              A 
    DOCC [    48 ]
    NA   [    48 ]
    NB   [    48 ]

  @DF-RKS Final Energy:  -651.55565850425023

   => Energetics <=

    Nuclear Repulsion Energy =            812.0437629906032271
    One-Electron Energy =               -2503.0845442540457952
    Two-Electron Energy =                1109.3716391898037728
    DFT Exchange-Correlation Energy =     -69.8454525720518262
    Empirical Dispersion Energy =          -0.0410638585594301
    VV10 Nonlocal Energy =                  0.0000000000000000
    Total Energy =                       -651.5556585042501183

Computation Completed


Properties will be evaluated at   0.000000,   0.000000,   0.000000 [a0]

Properties computed using the SCF density matrix


 Multipole Moments:

 ------------------------------------------------------------------------------------
     Multipole            Electronic (a.u.)      Nuclear  (a.u.)        Total (a.u.)
 ------------------------------------------------------------------------------------

 L = 1.  Multiply by 2.5417464519 to convert [e a0] to [Debye]
 Dipole X            :        -28.8623535           27.4078609           -1.4544926
 Dipole Y            :         15.3553937          -16.0284451           -0.6730514
 Dipole Z            :         18.9701683          -18.6350052            0.3351631
 Magnitude           :                                                    1.6373397

 ------------------------------------------------------------------------------------

*** tstop() called on choehoyun-ui-MacBookAir.local at Sun Aug  9 16:10:57 2026
Module time:
	user time   =     160.33 seconds =       2.67 minutes
	system time =       2.79 seconds =       0.05 minutes
	total time  =         24 seconds =       0.40 minutes
Total time:
	user time   =     160.33 seconds =       2.67 minutes
	system time =       2.79 seconds =       0.05 minutes
	total time  =         24 seconds =       0.40 minutes

    Psi4 stopped on: Sunday, 09 August 2026 04:10PM
    Psi4 wall time for execution: 0:00:24.12

*** Psi4 exiting successfully. Buy a developer a beer!
