
    -----------------------------------------------------------------------
          Psi4: An Open-Source Ab Initio Electronic Structure Package
                               Psi4 1.11 release

                         Git: Rev {} zzzzzzz 


    D. G. A. Smith, L. A. Burns, A. C. Simmonett, R. M. Parrish,
    M. C. Schieber, R. Galvelis, P. Kraus, H. Kruse, R. Di Remigio,
    A. Alenaizan, A. M. James, S. Lehtola, J. P. Misiewicz, M. Scheurer,
    R. A. Shaw, J. B. Schriber, Y. Xie, Z. L. Glick, D. A. Sirianni,
    J. S. O'Brien, J. M. Waldrop, A. Kumar, E. G. Hohenstein,
    B. P. Pritchard, B. R. Brooks, H. F. Schaefer III, A. Yu. Sokolov,
    K. Patkowski, A. E. DePrince III, U. Bozkaya, R. A. King,
    F. A. Evangelista, J. M. Turney, T. D. Crawford, C. D. Sherrill,
    J. Chem. Phys. 152(18) 184108 (2020). https://doi.org/10.1063/5.0006002

                            Additional Code Authors
    E. T. Seidl, C. L. Janssen, E. F. Valeev, M. L. Leininger,
    J. F. Gonthier, R. M. Richard, H. R. McAlexander, M. Saitow, X. Wang,
    P. Verma, M. H. Lechner, A. Jiang, S. Behnle, A. G. Heide,
    M. F. Herbst, D. L. Poole, T. Győri, E. C. Mitchell, J. P. Pederson,
    and A. M. Wallace

             Previous Authors, Complete List of Code Contributors,
                       and Citations for Specific Modules
    https://github.com/psi4/psi4/blob/master/codemeta.json
    https://github.com/psi4/psi4/graphs/contributors
    https://psicode.org/psi4manual/master/introduction.html#citing-psifour

    -----------------------------------------------------------------------


    Psi4 started on: Sunday, 09 August 2026 12:22PM

    Process ID: 57530
    Host:       choehoyun-ui-MacBookAir.local
    PSIDATADIR: /Users/hoyoun/micromamba/envs/psi4env/share/psi4
    Memory:     500.0 MiB
    Threads:    8
    Addons:     a̶d̶c̶c̶, a̶m̶b̶i̶t̶, b̶s̶e̶, c̶c̶t̶3̶, c̶f̶o̶u̶r̶, c̶h̶e̶m̶p̶s̶2̶, c̶p̶p̶e̶, d̶d̶x̶, dftd3,
                d̶f̶t̶d̶4̶, dkh, ecpint, einsums, f̶o̶r̶t̶e̶, gauxc, g̶c̶p̶, g̶d̶m̶a̶,
                g̶e̶o̶m̶e̶t̶r̶i̶c̶, g̶p̶u̶_̶d̶f̶c̶c̶, i̶n̶t̶e̶g̶r̶a̶t̶o̶r̶x̶x̶, i̶p̶i̶,
                l̶i̶b̶e̶f̶p̶, m̶d̶i̶, m̶p̶2̶d̶, m̶r̶c̶c̶, ooo, o̶p̶e̶n̶f̶e̶r̶m̶i̶o̶n̶p̶s̶i̶4̶,
                pcmsolver, p̶s̶i̶4̶f̶o̶c̶k̶c̶i̶, p̶s̶i̶x̶a̶s̶, p̶y̶e̶i̶n̶s̶u̶m̶s̶, r̶e̶s̶p̶,
                s̶i̶m̶i̶n̶t̶, s̶n̶s̶m̶p̶2̶, v̶2̶r̶d̶m̶_̶c̶a̶s̶s̶c̶f̶

  ==> Input File <==

--------------------------------------------------------------------------
memory 3 GB
molecule mol {
0 1
C 1.40153984731107 -0.69289247272373 0.14190429727275
C 1.00076028295152 -2.07189989168348 0.27458310064177
C 1.64656409621251 -3.30345220605813 0.05214618260349
C 0.93798418463936 -4.48365707232037 0.26395550935810
C -0.41065602132702 -4.46343832052776 0.68614293644742
C -1.08457294714393 -3.26054058799247 0.89156887443202
C -0.36190087393239 -2.08426821426862 0.67722508535630
H 2.68035323814369 -3.32760771117117 -0.28314482867389
H 1.42780067437420 -5.44093554398461 0.09731233798671
H -0.93526931366595 -5.40332455953819 0.84513126974421
H -2.12587492059150 -3.22497492875154 1.20036555288445
N -0.77464815691762 -0.76729225765099 0.76006568064027
C 0.29122878960070 0.08984318665950 0.43790164250565
C 0.17564021511952 1.54799695678631 0.55650897517885
C 2.72738487189427 -0.21578482518324 -0.27334950941277
C 3.89369410421312 -0.83232989216374 0.22038268509480
C 5.15928188415435 -0.38756675816126 -0.17033343351116
C 5.28628817081889 0.68358521007295 -1.06118159534430
C 4.13438230882083 1.30323651775099 -1.56129543766978
C 2.87008967814832 0.85579334236338 -1.17660358144837
H 3.79965488868553 -1.65081675660367 0.93009740247679
H 6.04818798213077 -0.87461797075811 0.22716964137056
H 6.27198355049891 1.03048866761272 -1.36527022262360
H 4.22188069992480 2.13250857843252 -2.26120854843273
H 1.97846711681050 1.33257803943825 -1.57556332844171
C -0.89641973488496 2.26085672858341 -0.01397372192158
C -0.97139351295938 3.65020322410636 0.11555700629044
C 0.02309926994184 4.35025091748106 0.80627225082138
C 1.09662718893540 3.65041398242248 1.37121527635855
C 1.17089619359371 2.26288944591222 1.25220011858969
H -1.65790205450088 1.73123558355698 -0.57858880769104
H -1.80487586392823 4.18581389103786 -0.33501716571972
H -0.03588951867107 5.43264433404197 0.90278278299586
H 1.87500338050364 4.18684368233974 1.91052892197923
H 2.00203259811869 1.71717418632488 1.69064958464312
N -2.03269766182064 -0.40418804869164 1.20671362088384
C -3.05246431971962 -0.19821340100961 0.25070775602127
C -4.20521377898602 0.50441391394278 0.64110708239253
C -5.25126105155259 0.68547157193241 -0.26321804864663
C -5.16572265732379 0.17129032921603 -1.56333160519714
C -4.01617342064976 -0.52721907002305 -1.94512248549759
C -2.95966257578941 -0.71657050103089 -1.04969320089307
H -4.27228509803965 0.90983368391613 1.65000044003472
H -6.13668639096502 1.23566327150887 0.04971186613515
H -5.98295230209235 0.31436609073875 -2.26637606216835
H -3.93369275249397 -0.93195365028552 -2.95207078781677
H -2.06875089599580 -1.25941006146569 -1.35178442489669
H -1.98385939159460 0.29755936586898 1.93721891486706
units angstrom
no_reorient
no_com
}
set basis def2-TZVP
set scf_type disk_df
set freeze_core true
set e_convergence 8
energy('b3lyp-d3bj')
--------------------------------------------------------------------------

  Memory set to   2.794 GiB by Python driver.

Scratch directory: /Users/hoyoun/Documents/Yonsei_AX_Camp/(진짜_이게_최종)/calibration/dft_work/_scratch/i6e/
   => Libint2 <=

    Primary   basis highest AM E, G, H:  7, 6, 3
    Auxiliary basis highest AM E, G, H:  7, 7, 4
    Onebody   basis highest AM E, G, H:  -, -, -
    Solid Harmonics ordering:            Gaussian

*** tstart() called on choehoyun-ui-MacBookAir.local
*** at Sun Aug  9 12:22:31 2026

   => Loading Basis Set <=

    Name: DEF2-TZVP
    Role: ORBITAL
    Keyword: BASIS
    atoms 1-7, 13-20, 26-30, 37-42  entry C          line   123 file /Users/hoyoun/micromamba/envs/psi4env/share/psi4/basis/def2-tzvp.gbs 
    atoms 8-11, 21-25, 31-35, 43-48 entry H          line    15 file /Users/hoyoun/micromamba/envs/psi4env/share/psi4/basis/def2-tzvp.gbs 
    atoms 12, 36                    entry N          line   156 file /Users/hoyoun/micromamba/envs/psi4env/share/psi4/basis/def2-tzvp.gbs 

   => B3LYP-D3(BJ): Empirical Dispersion <=

    Grimme's -D3 (BJ-damping) Dispersion Correction
    Grimme S.; Ehrlich S.; Goerigk L. (2011), J. Comput. Chem., 32: 1456

        s6 =       1.000000
        s8 =       1.988900
        a1 =       0.398100
        a2 =       4.421100


         ---------------------------------------------------------
                                   SCF
               by Justin Turney, Rob Parrish, Andy Simmonett
                          and Daniel G. A. Smith
                              RKS Reference
                        8 Threads,   2861 MiB Core
         ---------------------------------------------------------

  ==> Geometry <==

    Molecular point group: c1
    Full point group: C1

    Geometry (in Angstrom), charge = 0, multiplicity = 1:

       Center              X                  Y                   Z               Mass       
    ------------   -----------------  -----------------  -----------------  -----------------
         C            1.401539847311    -0.692892472724     0.141904297273    12.000000000000
         C            1.000760282952    -2.071899891683     0.274583100642    12.000000000000
         C            1.646564096213    -3.303452206058     0.052146182603    12.000000000000
         C            0.937984184639    -4.483657072320     0.263955509358    12.000000000000
         C           -0.410656021327    -4.463438320528     0.686142936447    12.000000000000
         C           -1.084572947144    -3.260540587992     0.891568874432    12.000000000000
         C           -0.361900873932    -2.084268214269     0.677225085356    12.000000000000
         H            2.680353238144    -3.327607711171    -0.283144828674     1.007825032230
         H            1.427800674374    -5.440935543985     0.097312337987     1.007825032230
         H           -0.935269313666    -5.403324559538     0.845131269744     1.007825032230
         H           -2.125874920591    -3.224974928752     1.200365552884     1.007825032230
         N           -0.774648156918    -0.767292257651     0.760065680640    14.003074004430
         C            0.291228789601     0.089843186660     0.437901642506    12.000000000000
         C            0.175640215120     1.547996956786     0.556508975179    12.000000000000
         C            2.727384871894    -0.215784825183    -0.273349509413    12.000000000000
         C            3.893694104213    -0.832329892164     0.220382685095    12.000000000000
         C            5.159281884154    -0.387566758161    -0.170333433511    12.000000000000
         C            5.286288170819     0.683585210073    -1.061181595344    12.000000000000
         C            4.134382308821     1.303236517751    -1.561295437670    12.000000000000
         C            2.870089678148     0.855793342363    -1.176603581448    12.000000000000
         H            3.799654888686    -1.650816756604     0.930097402477     1.007825032230
         H            6.048187982131    -0.874617970758     0.227169641371     1.007825032230
         H            6.271983550499     1.030488667613    -1.365270222624     1.007825032230
         H            4.221880699925     2.132508578433    -2.261208548433     1.007825032230
         H            1.978467116810     1.332578039438    -1.575563328442     1.007825032230
         C           -0.896419734885     2.260856728583    -0.013973721922    12.000000000000
         C           -0.971393512959     3.650203224106     0.115557006290    12.000000000000
         C            0.023099269942     4.350250917481     0.806272250821    12.000000000000
         C            1.096627188935     3.650413982422     1.371215276359    12.000000000000
         C            1.170896193594     2.262889445912     1.252200118590    12.000000000000
         H           -1.657902054501     1.731235583557    -0.578588807691     1.007825032230
         H           -1.804875863928     4.185813891038    -0.335017165720     1.007825032230
         H           -0.035889518671     5.432644334042     0.902782782996     1.007825032230
         H            1.875003380504     4.186843682340     1.910528921979     1.007825032230
         H            2.002032598119     1.717174186325     1.690649584643     1.007825032230
         N           -2.032697661821    -0.404188048692     1.206713620884    14.003074004430
         C           -3.052464319720    -0.198213401010     0.250707756021    12.000000000000
         C           -4.205213778986     0.504413913943     0.641107082393    12.000000000000
         C           -5.251261051553     0.685471571932    -0.263218048647    12.000000000000
         C           -5.165722657324     0.171290329216    -1.563331605197    12.000000000000
         C           -4.016173420650    -0.527219070023    -1.945122485498    12.000000000000
         C           -2.959662575789    -0.716570501031    -1.049693200893    12.000000000000
         H           -4.272285098040     0.909833683916     1.650000440035     1.007825032230
         H           -6.136686390965     1.235663271509     0.049711866135     1.007825032230
         H           -5.982952302092     0.314366090739    -2.266376062168     1.007825032230
         H           -3.933692752494    -0.931953650286    -2.952070787817     1.007825032230
         H           -2.068750895996    -1.259410061466    -1.351784424897     1.007825032230
         H           -1.983859391595     0.297559365869     1.937218914867     1.007825032230

  Running in c1 symmetry.

  Rotational constants: A =      0.00805  B =      0.00514  C =      0.00354 [cm^-1]
  Rotational constants: A =    241.25129  B =    153.96781  C =    106.01639 [MHz]
  Nuclear repulsion = 2400.486841197019658

  Charge       = 0
  Multiplicity = 1
  Electrons    = 190
  Nalpha       = 95
  Nbeta        = 95

  ==> Algorithm <==

  SCF Algorithm Type is DISK_DF.
  DIIS enabled.
  MOM disabled.
  Fractional occupation disabled.
  Guess Type is SAD.
  Energy threshold   = 1.00e-08
  Density threshold  = 1.00e-06
  Integral threshold = 1.00e-12

  ==> Primary Basis <==

  Basis Set: DEF2-TZVP
    Blend: DEF2-TZVP
    Number of shells: 388
    Number of basis functions: 988
    Number of Cartesian functions: 1128
    Spherical Harmonics?: true
    Max angular momentum: 3

  ==> DFT Potential <==

   => LibXC <=

    Version 7.1.2
    S. Lehtola, C. Steigemann, M. J. T. Oliveira, and M. A. L. Marques,  SoftwareX 7, 1–5 (2018) (10.1016/j.softx.2017.11.002)

   => Composite Functional: B3LYP-D3BJ2B <= 

    B3LYP-d3bj2b Hyb-GGA Exchange-Correlation Functional

    P. J. Stephens, F. J. Devlin, C. F. Chabalowski, and M. J. Frisch,  J. Phys. Chem. 98, 11623 (1994) (10.1021/j100096a001)

    Deriv               =              1
    GGA                 =           TRUE
    Meta                =          FALSE

    Exchange Hybrid     =           TRUE
    MP2 Hybrid          =          FALSE

   => Exchange Functionals <=

    0.0800   Slater exchange
    0.7200         Becke 88

   => Exact (HF) Exchange <=

    0.2000               HF 

   => Correlation Functionals <=

    0.1900   Vosko, Wilk & Nusair (VWN5_RPA)
    0.8100   Lee, Yang & Parr

   => LibXC Density Thresholds  <==

    XC_HYB_GGA_XC_B3LYP:  1.00E-15 

   => Molecular Quadrature <=

    Radial Scheme          =       TREUTLER
    Pruning Scheme         =           NONE
    Nuclear Scheme         =       TREUTLER

    Blocking Scheme        =         OCTREE
    BS radius alpha        =              1
    Pruning alpha          =              1
    Radial Points          =             75
    Spherical Points       =            302
    Total Points           =         978968
    Total Blocks           =           6791
    Max Points             =            256
    Max Functions          =            660
    Weights Tolerance      =       1.00E-15

   => Loading Basis Set <=

    Name: (DEF2-TZVP AUX)
    Role: JKFIT
    Keyword: DF_BASIS_SCF
    atoms 1-7, 13-20, 26-30, 37-42  entry C          line   198 file /Users/hoyoun/micromamba/envs/psi4env/share/psi4/basis/def2-universal-jkfit.gbs 
    atoms 8-11, 21-25, 31-35, 43-48 entry H          line    18 file /Users/hoyoun/micromamba/envs/psi4env/share/psi4/basis/def2-universal-jkfit.gbs 
    atoms 12, 36                    entry N          line   258 file /Users/hoyoun/micromamba/envs/psi4env/share/psi4/basis/def2-universal-jkfit.gbs 

  ==> Integral Setup <==

  ==> DiskDFJK: Density-Fitted J/K Matrices <==

    J tasked:                  Yes
    K tasked:                  Yes
    wK tasked:                  No
    OpenMP threads:              8
    Integrals threads:           8
    Memory [MiB]:             1931
    Algorithm:                Disk
    Integral Cache:           NONE
    Schwarz Cutoff:          1E-12
    Fitting Condition:       1E-10

   => Auxiliary Basis Set <=

  Basis Set: (DEF2-TZVP AUX)
    Blend: DEF2-UNIVERSAL-JKFIT
    Number of shells: 820
    Number of basis functions: 2464
    Number of Cartesian functions: 2900
    Spherical Harmonics?: true
    Max angular momentum: 4

  Cached 1.9% of DFT collocation blocks in 0.215 [GiB].

  Minimum eigenvalue in the overlap matrix is 5.4751598484E-06.
  Reciprocal condition number of the overlap matrix is 4.9655229635E-07.
    Using symmetric orthogonalization.

  ==> Pre-Iterations <==

  SCF Guess: Superposition of Atomic Densities via on-the-fly atomic UHF (no occupation information).

   -------------------------
    Irrep   Nso     Nmo    
   -------------------------
     A        988     988 
   -------------------------
    Total     988     988
   -------------------------

  ==> Iterations <==

                           Total Energy        Delta E     RMS |[F,P]|

   @DF-RKS iter SAD: -1112.23712043124169   -1.11224e+03   0.00000e+00 
   @DF-RKS iter   1: -1110.88782323331111    1.34930e+00   1.92372e-03 ADIIS/DIIS
   @DF-RKS iter   2: -1109.88448618639927    1.00334e+00   2.35510e-03 ADIIS/DIIS
   @DF-RKS iter   3: -1112.68763481309406   -2.80315e+00   5.17397e-04 ADIIS/DIIS
   @DF-RKS iter   4: -1112.76199088786598   -7.43561e-02   3.34237e-04 ADIIS/DIIS
   @DF-RKS iter   5: -1112.81684539247954   -5.48545e-02   7.90971e-05 DIIS
   @DF-RKS iter   6: -1112.81946596750117   -2.62058e-03   3.54686e-05 DIIS
   @DF-RKS iter   7: -1112.82004941099876   -5.83443e-04   8.63996e-06 DIIS
   @DF-RKS iter   8: -1112.82008187474389   -3.24637e-05   3.39627e-06 DIIS
   @DF-RKS iter   9: -1112.82008703545580   -5.16071e-06   1.39073e-06 DIIS
   @DF-RKS iter  10: -1112.82008800006520   -9.64609e-07   3.02562e-07 DIIS
   @DF-RKS iter  11: -1112.82008804058182   -4.05166e-08   1.51376e-07 DIIS
   @DF-RKS iter  12: -1112.82008805218493   -1.16031e-08   3.05976e-08 DIIS
   @DF-RKS iter  13: -1112.82008805257192   -3.86990e-10   1.43237e-08 DIIS
  Energy and wave function converged.


  ==> Post-Iterations <==

   Electrons on quadrature grid:
      Ntotal   =  189.9999161263 ; deviation = -8.387e-05 

    Orbital Energies [Eh]
    ---------------------

    Doubly Occupied:                                                      

       1A    -14.396859     2A    -14.377810     3A    -10.227557  
       4A    -10.220669     5A    -10.208134     6A    -10.200592  
       7A    -10.188157     8A    -10.186418     9A    -10.185957  
      10A    -10.185837    11A    -10.185716    12A    -10.185445  
      13A    -10.185061    14A    -10.184352    15A    -10.183659  
      16A    -10.179731    17A    -10.178889    18A    -10.177242  
      19A    -10.176372    20A    -10.176360    21A    -10.175797  
      22A    -10.175664    23A    -10.174712    24A    -10.174484  
      25A    -10.173797    26A    -10.173444    27A    -10.173021  
      28A    -10.168751    29A     -1.046560    30A     -0.920050  
      31A     -0.867991    32A     -0.859856    33A     -0.852526  
      34A     -0.833147    35A     -0.797311    36A     -0.773292  
      37A     -0.755524    38A     -0.754930    39A     -0.750450  
      40A     -0.746298    41A     -0.742925    42A     -0.718372  
      43A     -0.704975    44A     -0.640837    45A     -0.635921  
      46A     -0.623314    47A     -0.620081    48A     -0.608587  
      49A     -0.603909    50A     -0.593292    51A     -0.578267  
      52A     -0.569425    53A     -0.547901    54A     -0.543944  
      55A     -0.521951    56A     -0.514275    57A     -0.496389  
      58A     -0.492664    59A     -0.478882    60A     -0.469135  
      61A     -0.462957    62A     -0.451525    63A     -0.450895  
      64A     -0.449613    65A     -0.448510    66A     -0.438259  
      67A     -0.434125    68A     -0.431693    69A     -0.430476  
      70A     -0.421679    71A     -0.417771    72A     -0.413610  
      73A     -0.407597    74A     -0.395431    75A     -0.381812  
      76A     -0.370752    77A     -0.370574    78A     -0.364878  
      79A     -0.359965    80A     -0.356017    81A     -0.354013  
      82A     -0.353411    83A     -0.344212    84A     -0.340435  
      85A     -0.336183    86A     -0.321194    87A     -0.293228  
      88A     -0.273350    89A     -0.267880    90A     -0.263989  
      91A     -0.254729    92A     -0.251420    93A     -0.229345  
      94A     -0.225173    95A     -0.200765  

    Virtual:                                                              

      96A     -0.050610    97A     -0.027879    98A     -0.022867  
      99A     -0.015254   100A     -0.011866   101A     -0.009192  
     102A     -0.006958   103A      0.010167   104A      0.031448  
     105A      0.045359   106A      0.048154   107A      0.050317  
     108A      0.060036   109A      0.062977   110A      0.068884  
     111A      0.069226   112A      0.077538   113A      0.082876  
     114A      0.084064   115A      0.086411   116A      0.092818  
     117A      0.097306   118A      0.102843   119A      0.104044  
     120A      0.111554   121A      0.115196   122A      0.119906  
     123A      0.121179   124A      0.122605   125A      0.128607  
     126A      0.133094   127A      0.136148   128A      0.142717  
     129A      0.156281   130A      0.157949   131A      0.161729  
     132A      0.165365   133A      0.176370   134A      0.179899  
     135A      0.181589   136A      0.185263   137A      0.192052  
     138A      0.196528   139A      0.198409   140A      0.200577  
     141A      0.201331   142A      0.204807   143A      0.207323  
     144A      0.209421   145A      0.215739   146A      0.216711  
     147A      0.218773   148A      0.222535   149A      0.224415  
     150A      0.227126   151A      0.231143   152A      0.233856  
     153A      0.238601   154A      0.240748   155A      0.244661  
     156A      0.246205   157A      0.250710   158A      0.256460  
     159A      0.259428   160A      0.263188   161A      0.266243  
     162A      0.270090   163A      0.275513   164A      0.276476  
     165A      0.279152   166A      0.286028   167A      0.288025  
     168A      0.292394   169A      0.294273   170A      0.297783  
     171A      0.302632   172A      0.307061   173A      0.309216  
     174A      0.311796   175A      0.316268   176A      0.321752  
     177A      0.326332   178A      0.330228   179A      0.336587  
     180A      0.339169   181A      0.341577   182A      0.344402  
     183A      0.349456   184A      0.354536   185A      0.360860  
     186A      0.361580   187A      0.362592   188A      0.366718  
     189A      0.371149   190A      0.372566   191A      0.376592  
     192A      0.380106   193A      0.383013   194A      0.384657  
     195A      0.385963   196A      0.391319   197A      0.393461  
     198A      0.394890   199A      0.396709   200A      0.405851  
     201A      0.406630   202A      0.409538   203A      0.411843  
     204A      0.414176   205A      0.420089   206A      0.421041  
     207A      0.423121   208A      0.425212   209A      0.427086  
     210A      0.430132   211A      0.433797   212A      0.435314  
     213A      0.441875   214A      0.448454   215A      0.449185  
     216A      0.451663   217A      0.456578   218A      0.457552  
     219A      0.463295   220A      0.466590   221A      0.473010  
     222A      0.475237   223A      0.478009   224A      0.480859  
     225A      0.482913   226A      0.483306   227A      0.485236  
     228A      0.492580   229A      0.497257   230A      0.499962  
     231A      0.503183   232A      0.508437   233A      0.511400  
     234A      0.513648   235A      0.520264   236A      0.521772  
     237A      0.530027   238A      0.530131   239A      0.534516  
     240A      0.536003   241A      0.547741   242A      0.549045  
     243A      0.557550   244A      0.565587   245A      0.573202  
     246A      0.581745   247A      0.585608   248A      0.587090  
     249A      0.597783   250A      0.603985   251A      0.609074  
     252A      0.611314   253A      0.625778   254A      0.629368  
     255A      0.632554   256A      0.639817   257A      0.643540  
     258A      0.652705   259A      0.656439   260A      0.659063  
     261A      0.666056   262A      0.668412   263A      0.669980  
     264A      0.672833   265A      0.675043   266A      0.678437  
     267A      0.686404   268A      0.687024   269A      0.692612  
     270A      0.693900   271A      0.698048   272A      0.703240  
     273A      0.704356   274A      0.706920   275A      0.709393  
     276A      0.719402   277A      0.724635   278A      0.726494  
     279A      0.727677   280A      0.740121   281A      0.741518  
     282A      0.749826   283A      0.751088   284A      0.752018  
     285A      0.761024   286A      0.766486   287A      0.768596  
     288A      0.775554   289A      0.777192   290A      0.778588  
     291A      0.782436   292A      0.794070   293A      0.800628  
     294A      0.803282   295A      0.804846   296A      0.811453  
     297A      0.818704   298A      0.823663   299A      0.824915  
     300A      0.835583   301A      0.839993   302A      0.846040  
     303A      0.852035   304A      0.856191   305A      0.860503  
     306A      0.868879   307A      0.878535   308A      0.883734  
     309A      0.890154   310A      0.891710   311A      0.895130  
     312A      0.898090   313A      0.902767   314A      0.911198  
     315A      0.913259   316A      0.917066   317A      0.924416  
     318A      0.928109   319A      0.933171   320A      0.944277  
     321A      0.945773   322A      0.955901   323A      0.963727  
     324A      0.964858   325A      0.976070   326A      0.979538  
     327A      0.986192   328A      0.987815   329A      1.002531  
     330A      1.003009   331A      1.010775   332A      1.013246  
     333A      1.021162   334A      1.028273   335A      1.031059  
     336A      1.034089   337A      1.052619   338A      1.057742  
     339A      1.063311   340A      1.066255   341A      1.074742  
     342A      1.080752   343A      1.083723   344A      1.090710  
     345A      1.093197   346A      1.099957   347A      1.118449  
     348A      1.118969   349A      1.123608   350A      1.133060  
     351A      1.137901   352A      1.146587   353A      1.148728  
     354A      1.157805   355A      1.159917   356A      1.161464  
     357A      1.167220   358A      1.178003   359A      1.186496  
     360A      1.193133   361A      1.199365   362A      1.212935  
     363A      1.214411   364A      1.215761   365A      1.222825  
     366A      1.226845   367A      1.231416   368A      1.233778  
     369A      1.234955   370A      1.239813   371A      1.247152  
     372A      1.249476   373A      1.250365   374A      1.252435  
     375A      1.259315   376A      1.260212   377A      1.269325  
     378A      1.274531   379A      1.278935   380A      1.286992  
     381A      1.293265   382A      1.299955   383A      1.310488  
     384A      1.313026   385A      1.315675   386A      1.321915  
     387A      1.327519   388A      1.331612   389A      1.337981  
     390A      1.343233   391A      1.350605   392A      1.361464  
     393A      1.374071   394A      1.378099   395A      1.385921  
     396A      1.396755   397A      1.403559   398A      1.414540  
     399A      1.415709   400A      1.419016   401A      1.426237  
     402A      1.428717   403A      1.437781   404A      1.441478  
     405A      1.446452   406A      1.453634   407A      1.458779  
     408A      1.462949   409A      1.465130   410A      1.470656  
     411A      1.474329   412A      1.475667   413A      1.478913  
     414A      1.490912   415A      1.497634   416A      1.498315  
     417A      1.510513   418A      1.512444   419A      1.518722  
     420A      1.524130   421A      1.531559   422A      1.535437  
     423A      1.542934   424A      1.556817   425A      1.558705  
     426A      1.567173   427A      1.572345   428A      1.579897  
     429A      1.589069   430A      1.591307   431A      1.597217  
     432A      1.599187   433A      1.603703   434A      1.607939  
     435A      1.617004   436A      1.623717   437A      1.628148  
     438A      1.636581   439A      1.640849   440A      1.643297  
     441A      1.645729   442A      1.652901   443A      1.658613  
     444A      1.663165   445A      1.669110   446A      1.673720  
     447A      1.674650   448A      1.681487   449A      1.685084  
     450A      1.689674   451A      1.695516   452A      1.701085  
     453A      1.704241   454A      1.707142   455A      1.717116  
     456A      1.719143   457A      1.721076   458A      1.722894  
     459A      1.726847   460A      1.732919   461A      1.737328  
     462A      1.740892   463A      1.748742   464A      1.757517  
     465A      1.758885   466A      1.775247   467A      1.778678  
     468A      1.789574   469A      1.798875   470A      1.804792  
     471A      1.811520   472A      1.821446   473A      1.838909  
     474A      1.843240   475A      1.845246   476A      1.852174  
     477A      1.857818   478A      1.862322   479A      1.873437  
     480A      1.884611   481A      1.890865   482A      1.901685  
     483A      1.906574   484A      1.921462   485A      1.928000  
     486A      1.931512   487A      1.934824   488A      1.949871  
     489A      1.959188   490A      1.967065   491A      1.980443  
     492A      1.989143   493A      1.992472   494A      1.998046  
     495A      2.006155   496A      2.021889   497A      2.026429  
     498A      2.036353   499A      2.037500   500A      2.048374  
     501A      2.053141   502A      2.054831   503A      2.061256  
     504A      2.069864   505A      2.082439   506A      2.085927  
     507A      2.088950   508A      2.095901   509A      2.099691  
     510A      2.109306   511A      2.112252   512A      2.123401  
     513A      2.129398   514A      2.133349   515A      2.143121  
     516A      2.148426   517A      2.152563   518A      2.159040  
     519A      2.166200   520A      2.172239   521A      2.176397  
     522A      2.181546   523A      2.191840   524A      2.203300  
     525A      2.208682   526A      2.212015   527A      2.214558  
     528A      2.224210   529A      2.233498   530A      2.241671  
     531A      2.244975   532A      2.248960   533A      2.255781  
     534A      2.258315   535A      2.279391   536A      2.293364  
     537A      2.304911   538A      2.317159   539A      2.320758  
     540A      2.332384   541A      2.349977   542A      2.358457  
     543A      2.361764   544A      2.379549   545A      2.388450  
     546A      2.401766   547A      2.409244   548A      2.430860  
     549A      2.437151   550A      2.449299   551A      2.457351  
     552A      2.469713   553A      2.474149   554A      2.481334  
     555A      2.484818   556A      2.492249   557A      2.499765  
     558A      2.503895   559A      2.506512   560A      2.513866  
     561A      2.530364   562A      2.533946   563A      2.540346  
     564A      2.541358   565A      2.549512   566A      2.554309  
     567A      2.572196   568A      2.574627   569A      2.581012  
     570A      2.588358   571A      2.594397   572A      2.598838  
     573A      2.606357   574A      2.609289   575A      2.616405  
     576A      2.619045   577A      2.622369   578A      2.625843  
     579A      2.629258   580A      2.635231   581A      2.636203  
     582A      2.640252   583A      2.646199   584A      2.648169  
     585A      2.653619   586A      2.654198   587A      2.660243  
     588A      2.662089   589A      2.665730   590A      2.669523  
     591A      2.675105   592A      2.677262   593A      2.680972  
     594A      2.686123   595A      2.690094   596A      2.697999  
     597A      2.700768   598A      2.702313   599A      2.705768  
     600A      2.711758   601A      2.721309   602A      2.722405  
     603A      2.732056   604A      2.739053   605A      2.742798  
     606A      2.744388   607A      2.753256   608A      2.754766  
     609A      2.760195   610A      2.762465   611A      2.766261  
     612A      2.772045   613A      2.774989   614A      2.781818  
     615A      2.785784   616A      2.790652   617A      2.793644  
     618A      2.800161   619A      2.803192   620A      2.809932  
     621A      2.816578   622A      2.818627   623A      2.819713  
     624A      2.825720   625A      2.829494   626A      2.832630  
     627A      2.839977   628A      2.842568   629A      2.843962  
     630A      2.853488   631A      2.855256   632A      2.860237  
     633A      2.863968   634A      2.870375   635A      2.874942  
     636A      2.879158   637A      2.884084   638A      2.890367  
     639A      2.899199   640A      2.900912   641A      2.908517  
     642A      2.913701   643A      2.918733   644A      2.923770  
     645A      2.927341   646A      2.935508   647A      2.943063  
     648A      2.951989   649A      2.955637   650A      2.965904  
     651A      2.978352   652A      2.983416   653A      2.991701  
     654A      3.003679   655A      3.010049   656A      3.023539  
     657A      3.032147   658A      3.039743   659A      3.044094  
     660A      3.050853   661A      3.053309   662A      3.063430  
     663A      3.069188   664A      3.073144   665A      3.077310  
     666A      3.080052   667A      3.084393   668A      3.091960  
     669A      3.097066   670A      3.102498   671A      3.109450  
     672A      3.119494   673A      3.120339   674A      3.127937  
     675A      3.134517   676A      3.135467   677A      3.142498  
     678A      3.143656   679A      3.147378   680A      3.151046  
     681A      3.154513   682A      3.159613   683A      3.160149  
     684A      3.162149   685A      3.167581   686A      3.170975  
     687A      3.173480   688A      3.179113   689A      3.187091  
     690A      3.188704   691A      3.191469   692A      3.203904  
     693A      3.209199   694A      3.212590   695A      3.216452  
     696A      3.221887   697A      3.226553   698A      3.231514  
     699A      3.233620   700A      3.242608   701A      3.246965  
     702A      3.252338   703A      3.257489   704A      3.260923  
     705A      3.268305   706A      3.271215   707A      3.277114  
     708A      3.280057   709A      3.285718   710A      3.294348  
     711A      3.297565   712A      3.301452   713A      3.307463  
     714A      3.316071   715A      3.316484   716A      3.322693  
     717A      3.327520   718A      3.330801   719A      3.333270  
     720A      3.341280   721A      3.347438   722A      3.352093  
     723A      3.358211   724A      3.359753   725A      3.362166  
     726A      3.367193   727A      3.368113   728A      3.376900  
     729A      3.379934   730A      3.386621   731A      3.388605  
     732A      3.393739   733A      3.399874   734A      3.401979  
     735A      3.408619   736A      3.418200   737A      3.421607  
     738A      3.423155   739A      3.426787   740A      3.427209  
     741A      3.434363   742A      3.441881   743A      3.445330  
     744A      3.452765   745A      3.455096   746A      3.463897  
     747A      3.469077   748A      3.471713   749A      3.474451  
     750A      3.480126   751A      3.480426   752A      3.482868  
     753A      3.491921   754A      3.493037   755A      3.496884  
     756A      3.499448   757A      3.509431   758A      3.513491  
     759A      3.521823   760A      3.526325   761A      3.529664  
     762A      3.533009   763A      3.533527   764A      3.541239  
     765A      3.544614   766A      3.547265   767A      3.555571  
     768A      3.560876   769A      3.567760   770A      3.574330  
     771A      3.584635   772A      3.598353   773A      3.606219  
     774A      3.613228   775A      3.631917   776A      3.638003  
     777A      3.644540   778A      3.652324   779A      3.661795  
     780A      3.669218   781A      3.671076   782A      3.685165  
     783A      3.688295   784A      3.701447   785A      3.704134  
     786A      3.711158   787A      3.716124   788A      3.728775  
     789A      3.739027   790A      3.753355   791A      3.755672  
     792A      3.759854   793A      3.775495   794A      3.785127  
     795A      3.796867   796A      3.807419   797A      3.810004  
     798A      3.826345   799A      3.829750   800A      3.839353  
     801A      3.866836   802A      3.875956   803A      3.879257  
     804A      3.899366   805A      3.907653   806A      3.919994  
     807A      3.936154   808A      3.937409   809A      3.949860  
     810A      3.958651   811A      3.962962   812A      3.967445  
     813A      3.981433   814A      3.991359   815A      4.001840  
     816A      4.011394   817A      4.017233   818A      4.029584  
     819A      4.032406   820A      4.033466   821A      4.051419  
     822A      4.060830   823A      4.064154   824A      4.074453  
     825A      4.076476   826A      4.084492   827A      4.104205  
     828A      4.107996   829A      4.117862   830A      4.124581  
     831A      4.135873   832A      4.145083   833A      4.152174  
     834A      4.155111   835A      4.163669   836A      4.170870  
     837A      4.180092   838A      4.182924   839A      4.186994  
     840A      4.194326   841A      4.197346   842A      4.201835  
     843A      4.205743   844A      4.214543   845A      4.217099  
     846A      4.222039   847A      4.224424   848A      4.225418  
     849A      4.230306   850A      4.235273   851A      4.240878  
     852A      4.244425   853A      4.254485   854A      4.256001  
     855A      4.259075   856A      4.265458   857A      4.270737  
     858A      4.281027   859A      4.287543   860A      4.289624  
     861A      4.303669   862A      4.308746   863A      4.312320  
     864A      4.328581   865A      4.336518   866A      4.341824  
     867A      4.359887   868A      4.379243   869A      4.384777  
     870A      4.411176   871A      4.422295   872A      4.432117  
     873A      4.481984   874A      4.508804   875A      4.513345  
     876A      4.536041   877A      4.553682   878A      4.559258  
     879A      4.575845   880A      4.588911   881A      4.598689  
     882A      4.607398   883A      4.634072   884A      4.641058  
     885A      4.654300   886A      4.664722   887A      4.681905  
     888A      4.686289   889A      4.704203   890A      4.711085  
     891A      4.713159   892A      4.723539   893A      4.727926  
     894A      4.736113   895A      4.756138   896A      4.765505  
     897A      4.781622   898A      4.787935   899A      4.812178  
     900A      4.814837   901A      4.832500   902A      4.846796  
     903A      4.850533   904A      4.856110   905A      4.864843  
     906A      4.878839   907A      4.890344   908A      4.903537  
     909A      4.925824   910A      4.933967   911A      4.966926  
     912A      4.981695   913A      4.989476   914A      5.014505  
     915A      5.029101   916A      5.051703   917A      5.069532  
     918A      5.084662   919A      5.101126   920A      5.123374  
     921A      5.139783   922A      5.150035   923A      5.164555  
     924A      5.186170   925A      5.189576   926A      5.209921  
     927A      5.220000   928A      5.229215   929A      5.239071  
     930A      5.256707   931A      5.263874   932A      5.284427  
     933A      5.294821   934A      5.307509   935A      5.315575  
     936A      5.367190   937A      5.390687   938A      5.413984  
     939A      5.426308   940A      5.460004   941A      5.468974  
     942A      5.487562   943A      5.518732   944A      5.549585  
     945A      5.567622   946A      5.581505   947A      5.605104  
     948A      5.625120   949A      5.641938   950A      5.684172  
     951A      5.716900   952A      5.753922   953A      5.778430  
     954A      5.842600   955A      5.874750   956A      5.988558  
     957A      6.011978   958A      6.345625   959A      6.457071  
     960A      7.044040   961A     22.137992   962A     22.179475  
     963A     22.245076   964A     22.356507   965A     22.523351  
     966A     22.546935   967A     22.553381   968A     22.554504  
     969A     22.561926   970A     22.563866   971A     22.607700  
     972A     22.623032   973A     22.700369   974A     22.718109  
     975A     22.743383   976A     22.748226   977A     22.778724  
     978A     22.787557   979A     22.822972   980A     22.924002  
     981A     23.129411   982A     23.148468   983A     23.176625  
     984A     23.313364   985A     23.486650   986A     23.735682  
     987A     32.487407   988A     33.081935  

    Final Occupation by Irrep:
              A 
    DOCC [    95 ]
    NA   [    95 ]
    NB   [    95 ]

  @DF-RKS Final Energy: -1112.82008805257192

   => Energetics <=

    Nuclear Repulsion Energy =           2400.4868411970196576
    One-Electron Energy =               -6276.1417485836136620
    Two-Electron Energy =                2894.5301086052440951
    DFT Exchange-Correlation Energy =    -131.5730128065001736
    Empirical Dispersion Energy =          -0.1222764647217304
    VV10 Nonlocal Energy =                  0.0000000000000000
    Total Energy =                      -1112.8200880525719185

Computation Completed


Properties will be evaluated at   0.000000,   0.000000,   0.000000 [a0]

Properties computed using the SCF density matrix


 Multipole Moments:

 ------------------------------------------------------------------------------------
     Multipole            Electronic (a.u.)      Nuclear  (a.u.)        Total (a.u.)
 ------------------------------------------------------------------------------------

 L = 1.  Multiply by 2.5417464519 to convert [e a0] to [Debye]
 Dipole X            :         -1.0214455            0.6727917           -0.3486538
 Dipole Y            :         25.6377110          -24.8249944            0.8127166
 Dipole Z            :        -17.9277837           18.1547059            0.2269222
 Magnitude           :                                                    0.9129959

 ------------------------------------------------------------------------------------

*** tstop() called on choehoyun-ui-MacBookAir.local at Sun Aug  9 12:28:37 2026
Module time:
	user time   =    1999.76 seconds =      33.33 minutes
	system time =      61.77 seconds =       1.03 minutes
	total time  =        366 seconds =       6.10 minutes
Total time:
	user time   =    1999.76 seconds =      33.33 minutes
	system time =      61.77 seconds =       1.03 minutes
	total time  =        366 seconds =       6.10 minutes

    Psi4 stopped on: Sunday, 09 August 2026 12:28PM
    Psi4 wall time for execution: 0:06:05.74

*** Psi4 exiting successfully. Buy a developer a beer!
