
    -----------------------------------------------------------------------
          Psi4: An Open-Source Ab Initio Electronic Structure Package
                               Psi4 1.11 release

                         Git: Rev {} zzzzzzz 


    D. G. A. Smith, L. A. Burns, A. C. Simmonett, R. M. Parrish,
    M. C. Schieber, R. Galvelis, P. Kraus, H. Kruse, R. Di Remigio,
    A. Alenaizan, A. M. James, S. Lehtola, J. P. Misiewicz, M. Scheurer,
    R. A. Shaw, J. B. Schriber, Y. Xie, Z. L. Glick, D. A. Sirianni,
    J. S. O'Brien, J. M. Waldrop, A. Kumar, E. G. Hohenstein,
    B. P. Pritchard, B. R. Brooks, H. F. Schaefer III, A. Yu. Sokolov,
    K. Patkowski, A. E. DePrince III, U. Bozkaya, R. A. King,
    F. A. Evangelista, J. M. Turney, T. D. Crawford, C. D. Sherrill,
    J. Chem. Phys. 152(18) 184108 (2020). https://doi.org/10.1063/5.0006002

                            Additional Code Authors
    E. T. Seidl, C. L. Janssen, E. F. Valeev, M. L. Leininger,
    J. F. Gonthier, R. M. Richard, H. R. McAlexander, M. Saitow, X. Wang,
    P. Verma, M. H. Lechner, A. Jiang, S. Behnle, A. G. Heide,
    M. F. Herbst, D. L. Poole, T. Győri, E. C. Mitchell, J. P. Pederson,
    and A. M. Wallace

             Previous Authors, Complete List of Code Contributors,
                       and Citations for Specific Modules
    https://github.com/psi4/psi4/blob/master/codemeta.json
    https://github.com/psi4/psi4/graphs/contributors
    https://psicode.org/psi4manual/master/introduction.html#citing-psifour

    -----------------------------------------------------------------------


    Psi4 started on: Sunday, 09 August 2026 09:50AM

    Process ID: 55469
    Host:       choehoyun-ui-MacBookAir.local
    PSIDATADIR: /Users/hoyoun/micromamba/envs/psi4env/share/psi4
    Memory:     500.0 MiB
    Threads:    8
    Addons:     a̶d̶c̶c̶, a̶m̶b̶i̶t̶, b̶s̶e̶, c̶c̶t̶3̶, c̶f̶o̶u̶r̶, c̶h̶e̶m̶p̶s̶2̶, c̶p̶p̶e̶, d̶d̶x̶, dftd3,
                d̶f̶t̶d̶4̶, dkh, ecpint, einsums, f̶o̶r̶t̶e̶, gauxc, g̶c̶p̶, g̶d̶m̶a̶,
                g̶e̶o̶m̶e̶t̶r̶i̶c̶, g̶p̶u̶_̶d̶f̶c̶c̶, i̶n̶t̶e̶g̶r̶a̶t̶o̶r̶x̶x̶, i̶p̶i̶,
                l̶i̶b̶e̶f̶p̶, m̶d̶i̶, m̶p̶2̶d̶, m̶r̶c̶c̶, ooo, o̶p̶e̶n̶f̶e̶r̶m̶i̶o̶n̶p̶s̶i̶4̶,
                pcmsolver, p̶s̶i̶4̶f̶o̶c̶k̶c̶i̶, p̶s̶i̶x̶a̶s̶, p̶y̶e̶i̶n̶s̶u̶m̶s̶, r̶e̶s̶p̶,
                s̶i̶m̶i̶n̶t̶, s̶n̶s̶m̶p̶2̶, v̶2̶r̶d̶m̶_̶c̶a̶s̶s̶c̶f̶

  ==> Input File <==

--------------------------------------------------------------------------
memory 3 GB
molecule mol {
0 1
C 2.06971256154537 1.44259441620737 0.03425408892125
C 0.89925735373251 1.53249416752614 -0.99837644698414
C 0.16339725880797 0.18293451293798 -0.77468012055520
C 1.00325864171754 -0.44918987457652 0.40161483988960
C 2.32217681523676 -0.94333029815899 -0.27469627999309
C 3.06381379527032 0.37837496268904 -0.54165401791309
O 1.42977049998055 0.72775012710953 1.10393093424989
C 0.33748910935035 -1.42269472589793 1.34254316878286
C 2.68835869399177 2.73348165689877 0.51029810577283
C 3.66263791682911 -0.66605877061858 0.39215341166142
N -1.14512478403806 0.67260761399302 -0.35039159484573
N -1.17078776109993 2.04324053689405 -0.27146801828530
N -0.08945939568872 2.57453332506694 -0.60903731862366
H 1.24356241994589 1.73271984725562 -2.01553530578869
H 0.08363298284154 -0.46205898443338 -1.65163985447885
Cl 2.12111040478461 -2.28799947607609 -1.41580458809867
Cl 3.87265064820685 0.83771953190065 -2.04974178589620
H 0.08686722793811 -2.34783396351857 0.81542513254277
H -0.58159541692021 -0.98198499014941 1.74024592189351
H 1.02104732689148 -1.64963636267297 2.16717896169573
H 3.17705150480723 3.23861965763131 -0.32990290790602
H 3.43006305915355 2.52235484533932 1.28741954258499
H 1.90404202808348 3.38546907785660 0.90635859997857
Cl 3.87016497277940 -0.42630049334059 2.17037169976488
Cl 5.06654793899068 -1.58107521123837 -0.22729364386256
C -2.32152848352909 -1.43959125558260 -0.62798906934847
C -3.48942752389783 -2.19841334902584 -0.52021660603705
C -4.66887655025595 -1.62751933840152 -0.03612157168070
C -4.66690395100959 -0.27846586834308 0.34093675658532
C -3.51081729196188 0.49365863541943 0.24308412365940
C -2.32358974769863 -0.08593051416520 -0.24588867233271
H -1.41355276086677 -1.90382717753766 -0.99982658931333
H -3.46948717054541 -3.24452119960624 -0.81933720345216
H -5.57531496384173 -2.22230752647628 0.04799824237527
H -5.57691369563770 0.18174607164598 0.72092575705782
H -3.51323366389365 1.53844039344808 0.53486230797945
units angstrom
no_reorient
no_com
}
set basis def2-TZVP
set scf_type df
set freeze_core true
set e_convergence 8
energy('b3lyp-d3bj')
--------------------------------------------------------------------------

  Memory set to   2.794 GiB by Python driver.

Scratch directory: /Users/hoyoun/Documents/Yonsei_AX_Camp/(진짜_이게_최종)/calibration/dft_work/_scratch/i19p/
   => Libint2 <=

    Primary   basis highest AM E, G, H:  7, 6, 3
    Auxiliary basis highest AM E, G, H:  7, 7, 4
    Onebody   basis highest AM E, G, H:  -, -, -
    Solid Harmonics ordering:            Gaussian

*** tstart() called on choehoyun-ui-MacBookAir.local
*** at Sun Aug  9 09:50:23 2026

   => Loading Basis Set <=

    Name: DEF2-TZVP
    Role: ORBITAL
    Keyword: BASIS
    atoms 1-6, 8-10, 26-31    entry C          line   123 file /Users/hoyoun/micromamba/envs/psi4env/share/psi4/basis/def2-tzvp.gbs 
    atoms 7                   entry O          line   189 file /Users/hoyoun/micromamba/envs/psi4env/share/psi4/basis/def2-tzvp.gbs 
    atoms 11-13               entry N          line   156 file /Users/hoyoun/micromamba/envs/psi4env/share/psi4/basis/def2-tzvp.gbs 
    atoms 14-15, 18-23, 32-36 entry H          line    15 file /Users/hoyoun/micromamba/envs/psi4env/share/psi4/basis/def2-tzvp.gbs 
    atoms 16-17, 24-25        entry CL         line   534 file /Users/hoyoun/micromamba/envs/psi4env/share/psi4/basis/def2-tzvp.gbs 

   => B3LYP-D3(BJ): Empirical Dispersion <=

    Grimme's -D3 (BJ-damping) Dispersion Correction
    Grimme S.; Ehrlich S.; Goerigk L. (2011), J. Comput. Chem., 32: 1456

        s6 =       1.000000
        s8 =       1.988900
        a1 =       0.398100
        a2 =       4.421100


         ---------------------------------------------------------
                                   SCF
               by Justin Turney, Rob Parrish, Andy Simmonett
                          and Daniel G. A. Smith
                              RKS Reference
                        8 Threads,   2861 MiB Core
         ---------------------------------------------------------

  ==> Geometry <==

    Molecular point group: c1
    Full point group: C1

    Geometry (in Angstrom), charge = 0, multiplicity = 1:

       Center              X                  Y                   Z               Mass       
    ------------   -----------------  -----------------  -----------------  -----------------
         C            2.069712561545     1.442594416207     0.034254088921    12.000000000000
         C            0.899257353733     1.532494167526    -0.998376446984    12.000000000000
         C            0.163397258808     0.182934512938    -0.774680120555    12.000000000000
         C            1.003258641718    -0.449189874577     0.401614839890    12.000000000000
         C            2.322176815237    -0.943330298159    -0.274696279993    12.000000000000
         C            3.063813795270     0.378374962689    -0.541654017913    12.000000000000
         O            1.429770499981     0.727750127110     1.103930934250    15.994914619570
         C            0.337489109350    -1.422694725898     1.342543168783    12.000000000000
         C            2.688358693992     2.733481656899     0.510298105773    12.000000000000
         C            3.662637916829    -0.666058770619     0.392153411661    12.000000000000
         N           -1.145124784038     0.672607613993    -0.350391594846    14.003074004430
         N           -1.170787761100     2.043240536894    -0.271468018285    14.003074004430
         N           -0.089459395689     2.574533325067    -0.609037318624    14.003074004430
         H            1.243562419946     1.732719847256    -2.015535305789     1.007825032230
         H            0.083632982842    -0.462058984433    -1.651639854479     1.007825032230
         CL           2.121110404785    -2.287999476076    -1.415804588099    34.968852682000
         CL           3.872650648207     0.837719531901    -2.049741785896    34.968852682000
         H            0.086867227938    -2.347833963519     0.815425132543     1.007825032230
         H           -0.581595416920    -0.981984990149     1.740245921894     1.007825032230
         H            1.021047326891    -1.649636362673     2.167178961696     1.007825032230
         H            3.177051504807     3.238619657631    -0.329902907906     1.007825032230
         H            3.430063059154     2.522354845339     1.287419542585     1.007825032230
         H            1.904042028083     3.385469077857     0.906358599979     1.007825032230
         CL           3.870164972779    -0.426300493341     2.170371699765    34.968852682000
         CL           5.066547938991    -1.581075211238    -0.227293643863    34.968852682000
         C           -2.321528483529    -1.439591255583    -0.627989069348    12.000000000000
         C           -3.489427523898    -2.198413349026    -0.520216606037    12.000000000000
         C           -4.668876550256    -1.627519338402    -0.036121571681    12.000000000000
         C           -4.666903951010    -0.278465868343     0.340936756585    12.000000000000
         C           -3.510817291962     0.493658635419     0.243084123659    12.000000000000
         C           -2.323589747699    -0.085930514165    -0.245888672333    12.000000000000
         H           -1.413552760867    -1.903827177538    -0.999826589313     1.007825032230
         H           -3.469487170545    -3.244521199606    -0.819337203452     1.007825032230
         H           -5.575314963842    -2.222307526476     0.047998242375     1.007825032230
         H           -5.576913695638     0.181746071646     0.720925757058     1.007825032230
         H           -3.513233663894     1.538440393448     0.534862307979     1.007825032230

  Running in c1 symmetry.

  Rotational constants: A =      0.01270  B =      0.00398  C =      0.00368 [cm^-1]
  Rotational constants: A =    380.65454  B =    119.37144  C =    110.44569 [MHz]
  Nuclear repulsion = 2739.641403530846674

  Charge       = 0
  Multiplicity = 1
  Electrons    = 200
  Nalpha       = 100
  Nbeta        = 100

  ==> Algorithm <==

  SCF Algorithm Type is DF.
  DIIS enabled.
  MOM disabled.
  Fractional occupation disabled.
  Guess Type is SAD.
  Energy threshold   = 1.00e-08
  Density threshold  = 1.00e-06
  Integral threshold = 1.00e-12

  ==> Primary Basis <==

  Basis Set: DEF2-TZVP
    Blend: DEF2-TZVP
    Number of shells: 313
    Number of basis functions: 815
    Number of Cartesian functions: 930
    Spherical Harmonics?: true
    Max angular momentum: 3

  ==> DFT Potential <==

   => LibXC <=

    Version 7.1.2
    S. Lehtola, C. Steigemann, M. J. T. Oliveira, and M. A. L. Marques,  SoftwareX 7, 1–5 (2018) (10.1016/j.softx.2017.11.002)

   => Composite Functional: B3LYP-D3BJ2B <= 

    B3LYP-d3bj2b Hyb-GGA Exchange-Correlation Functional

    P. J. Stephens, F. J. Devlin, C. F. Chabalowski, and M. J. Frisch,  J. Phys. Chem. 98, 11623 (1994) (10.1021/j100096a001)

    Deriv               =              1
    GGA                 =           TRUE
    Meta                =          FALSE

    Exchange Hybrid     =           TRUE
    MP2 Hybrid          =          FALSE

   => Exchange Functionals <=

    0.0800   Slater exchange
    0.7200         Becke 88

   => Exact (HF) Exchange <=

    0.2000               HF 

   => Correlation Functionals <=

    0.1900   Vosko, Wilk & Nusair (VWN5_RPA)
    0.8100   Lee, Yang & Parr

   => LibXC Density Thresholds  <==

    XC_HYB_GGA_XC_B3LYP:  1.00E-15 

   => Molecular Quadrature <=

    Radial Scheme          =       TREUTLER
    Pruning Scheme         =           NONE
    Nuclear Scheme         =       TREUTLER

    Blocking Scheme        =         OCTREE
    BS radius alpha        =              1
    Pruning alpha          =              1
    Radial Points          =             75
    Spherical Points       =            302
    Total Points           =         727356
    Total Blocks           =           5221
    Max Points             =            256
    Max Functions          =            614
    Weights Tolerance      =       1.00E-15

   => Loading Basis Set <=

    Name: (DEF2-TZVP AUX)
    Role: JKFIT
    Keyword: DF_BASIS_SCF
    atoms 1-6, 8-10, 26-31    entry C          line   198 file /Users/hoyoun/micromamba/envs/psi4env/share/psi4/basis/def2-universal-jkfit.gbs 
    atoms 7                   entry O          line   318 file /Users/hoyoun/micromamba/envs/psi4env/share/psi4/basis/def2-universal-jkfit.gbs 
    atoms 11-13               entry N          line   258 file /Users/hoyoun/micromamba/envs/psi4env/share/psi4/basis/def2-universal-jkfit.gbs 
    atoms 14-15, 18-23, 32-36 entry H          line    18 file /Users/hoyoun/micromamba/envs/psi4env/share/psi4/basis/def2-universal-jkfit.gbs 
    atoms 16-17, 24-25        entry CL         line   986 file /Users/hoyoun/micromamba/envs/psi4env/share/psi4/basis/def2-universal-jkfit.gbs 

  ==> Integral Setup <==

  ==> DiskDFJK: Density-Fitted J/K Matrices <==

    J tasked:                  Yes
    K tasked:                  Yes
    wK tasked:                  No
    OpenMP threads:              8
    Integrals threads:           8
    Memory [MiB]:             1931
    Algorithm:                Disk
    Integral Cache:           NONE
    Schwarz Cutoff:          1E-12
    Fitting Condition:       1E-10

   => Auxiliary Basis Set <=

  Basis Set: (DEF2-TZVP AUX)
    Blend: DEF2-UNIVERSAL-JKFIT
    Number of shells: 705
    Number of basis functions: 2179
    Number of Cartesian functions: 2587
    Spherical Harmonics?: true
    Max angular momentum: 4

  Cached 2.6% of DFT collocation blocks in 0.185 [GiB].

  Minimum eigenvalue in the overlap matrix is 7.1168928898E-06.
  Reciprocal condition number of the overlap matrix is 5.8558571985E-07.
    Using symmetric orthogonalization.

  ==> Pre-Iterations <==

  SCF Guess: Superposition of Atomic Densities via on-the-fly atomic UHF (no occupation information).

   -------------------------
    Irrep   Nso     Nmo    
   -------------------------
     A        815     815 
   -------------------------
    Total     815     815
   -------------------------

  ==> Iterations <==

                           Total Energy        Delta E     RMS |[F,P]|

   @DF-RKS iter SAD: -2660.56221919318750   -2.66056e+03   0.00000e+00 
   @DF-RKS iter   1: -2658.79460064699060    1.76762e+00   2.01005e-03 DIIS/ADIIS
   @DF-RKS iter   2: -2657.46077263731422    1.33383e+00   2.74847e-03 DIIS/ADIIS
   @DF-RKS iter   3: -2659.92964968720617   -2.46888e+00   7.34817e-04 DIIS/ADIIS
   @DF-RKS iter   4: -2660.06661293366005   -1.36963e-01   2.68306e-04 DIIS/ADIIS
   @DF-RKS iter   5: -2660.08470723761047   -1.80943e-02   1.23273e-04 DIIS/ADIIS
   @DF-RKS iter   6: -2660.08834915571288   -3.64192e-03   5.66314e-05 DIIS
   @DF-RKS iter   7: -2660.08918305158977   -8.33896e-04   1.49518e-05 DIIS
   @DF-RKS iter   8: -2660.08924815938735   -6.51078e-05   3.64626e-06 DIIS
   @DF-RKS iter   9: -2660.08925151143876   -3.35205e-06   1.20892e-06 DIIS
   @DF-RKS iter  10: -2660.08925188926105   -3.77822e-07   3.24534e-07 DIIS
   @DF-RKS iter  11: -2660.08925191724984   -2.79888e-08   1.02169e-07 DIIS
   @DF-RKS iter  12: -2660.08925191999833   -2.74849e-09   3.92594e-08 DIIS
  Energy and wave function converged.


  ==> Post-Iterations <==

   Electrons on quadrature grid:
      Ntotal   =  199.9997352327 ; deviation = -2.648e-04 

    Orbital Energies [Eh]
    ---------------------

    Doubly Occupied:                                                      

       1A   -101.556231     2A   -101.554100     3A   -101.549494  
       4A   -101.542523     5A    -19.167956     6A    -14.413396  
       7A    -14.396432     8A    -14.361272     9A    -10.336831  
      10A    -10.292271    11A    -10.291838    12A    -10.281996  
      13A    -10.280864    14A    -10.249562    15A    -10.239653  
      16A    -10.236132    17A    -10.191148    18A    -10.190441  
      19A    -10.188767    20A    -10.187650    21A    -10.185660  
      22A    -10.183723    23A    -10.182434    24A     -9.487667  
      25A     -9.485539    26A     -9.481009    27A     -9.474080  
      28A     -7.249828    29A     -7.247742    30A     -7.243566  
      31A     -7.240326    32A     -7.240222    33A     -7.238188  
      34A     -7.238053    35A     -7.236474    36A     -7.233377  
      37A     -7.233372    38A     -7.226717    39A     -7.226340  
      40A     -1.112617    41A     -1.090562    42A     -0.969313  
      43A     -0.944318    44A     -0.887326    45A     -0.883807  
      46A     -0.859502    47A     -0.838896    48A     -0.833472  
      49A     -0.821176    50A     -0.815232    51A     -0.762711  
      52A     -0.759270    53A     -0.751020    54A     -0.684269  
      55A     -0.682975    56A     -0.650301    57A     -0.646563  
      58A     -0.611524    59A     -0.587970    60A     -0.582765  
      61A     -0.567134    62A     -0.560034    63A     -0.552214  
      64A     -0.522380    65A     -0.521371    66A     -0.502708  
      67A     -0.491359    68A     -0.468244    69A     -0.465456  
      70A     -0.463412    71A     -0.457803    72A     -0.450609  
      73A     -0.440329    74A     -0.438797    75A     -0.436719  
      76A     -0.434630    77A     -0.429138    78A     -0.409384  
      79A     -0.403076    80A     -0.400294    81A     -0.394333  
      82A     -0.385504    83A     -0.384489    84A     -0.377706  
      85A     -0.375638    86A     -0.367994    87A     -0.362660  
      88A     -0.355789    89A     -0.352295    90A     -0.346131  
      91A     -0.343103    92A     -0.331107    93A     -0.322427  
      94A     -0.312915    95A     -0.298297    96A     -0.297320  
      97A     -0.295973    98A     -0.281017    99A     -0.269434  
     100A     -0.226437  

    Virtual:                                                              

     101A     -0.065454   102A     -0.054283   103A     -0.030818  
     104A     -0.026509   105A     -0.007021   106A      0.014943  
     107A      0.029760   108A      0.031219   109A      0.037846  
     110A      0.044657   111A      0.058696   112A      0.060070  
     113A      0.069029   114A      0.076851   115A      0.080912  
     116A      0.084296   117A      0.094703   118A      0.096873  
     119A      0.097929   120A      0.106544   121A      0.108543  
     122A      0.113817   123A      0.118067   124A      0.120698  
     125A      0.124092   126A      0.128228   127A      0.136037  
     128A      0.142977   129A      0.146529   130A      0.149683  
     131A      0.160148   132A      0.163162   133A      0.173927  
     134A      0.177303   135A      0.182548   136A      0.184982  
     137A      0.190808   138A      0.195418   139A      0.202153  
     140A      0.207105   141A      0.208171   142A      0.216385  
     143A      0.219178   144A      0.222446   145A      0.224395  
     146A      0.230847   147A      0.234982   148A      0.239103  
     149A      0.246121   150A      0.251727   151A      0.254941  
     152A      0.256668   153A      0.264177   154A      0.267147  
     155A      0.272670   156A      0.274762   157A      0.278872  
     158A      0.280528   159A      0.282578   160A      0.286965  
     161A      0.289665   162A      0.293900   163A      0.304695  
     164A      0.307136   165A      0.317059   166A      0.319552  
     167A      0.320477   168A      0.324061   169A      0.330448  
     170A      0.334452   171A      0.338034   172A      0.340439  
     173A      0.343406   174A      0.345723   175A      0.348585  
     176A      0.351949   177A      0.358380   178A      0.363294  
     179A      0.368734   180A      0.370259   181A      0.372518  
     182A      0.376895   183A      0.379889   184A      0.386116  
     185A      0.394814   186A      0.396778   187A      0.403520  
     188A      0.407098   189A      0.409282   190A      0.412804  
     191A      0.414471   192A      0.418796   193A      0.422712  
     194A      0.427585   195A      0.428571   196A      0.436890  
     197A      0.438719   198A      0.441075   199A      0.445880  
     200A      0.450266   201A      0.452801   202A      0.456539  
     203A      0.458078   204A      0.462483   205A      0.466999  
     206A      0.471800   207A      0.472906   208A      0.477788  
     209A      0.479112   210A      0.484409   211A      0.487623  
     212A      0.491280   213A      0.502821   214A      0.511160  
     215A      0.517626   216A      0.527168   217A      0.535525  
     218A      0.538064   219A      0.541422   220A      0.551874  
     221A      0.559882   222A      0.568797   223A      0.576679  
     224A      0.578473   225A      0.591558   226A      0.594222  
     227A      0.601974   228A      0.602771   229A      0.610434  
     230A      0.628508   231A      0.631551   232A      0.635435  
     233A      0.640911   234A      0.642049   235A      0.646834  
     236A      0.656138   237A      0.658849   238A      0.665561  
     239A      0.672377   240A      0.678201   241A      0.687997  
     242A      0.691762   243A      0.696493   244A      0.706279  
     245A      0.709581   246A      0.714711   247A      0.717869  
     248A      0.723216   249A      0.726393   250A      0.732432  
     251A      0.741129   252A      0.745086   253A      0.757080  
     254A      0.759687   255A      0.766718   256A      0.772705  
     257A      0.782193   258A      0.785972   259A      0.788990  
     260A      0.793622   261A      0.804398   262A      0.807574  
     263A      0.817274   264A      0.821099   265A      0.826335  
     266A      0.835406   267A      0.848504   268A      0.857150  
     269A      0.862305   270A      0.863973   271A      0.873210  
     272A      0.880816   273A      0.894367   274A      0.900563  
     275A      0.906250   276A      0.912653   277A      0.919038  
     278A      0.930104   279A      0.933060   280A      0.948694  
     281A      0.951926   282A      0.963066   283A      0.981975  
     284A      0.988545   285A      0.994354   286A      1.001191  
     287A      1.015731   288A      1.018702   289A      1.022715  
     290A      1.025412   291A      1.051659   292A      1.054374  
     293A      1.063224   294A      1.065327   295A      1.080649  
     296A      1.087083   297A      1.089863   298A      1.099165  
     299A      1.110429   300A      1.113945   301A      1.124239  
     302A      1.127948   303A      1.135066   304A      1.147441  
     305A      1.149396   306A      1.158954   307A      1.168960  
     308A      1.173521   309A      1.183579   310A      1.190466  
     311A      1.195687   312A      1.207007   313A      1.209462  
     314A      1.215385   315A      1.225785   316A      1.228565  
     317A      1.236312   318A      1.244960   319A      1.251892  
     320A      1.257150   321A      1.267186   322A      1.276456  
     323A      1.284122   324A      1.289745   325A      1.297856  
     326A      1.305200   327A      1.317057   328A      1.327228  
     329A      1.334911   330A      1.350479   331A      1.354556  
     332A      1.361166   333A      1.374625   334A      1.391492  
     335A      1.408304   336A      1.411994   337A      1.429947  
     338A      1.439452   339A      1.446006   340A      1.451022  
     341A      1.456851   342A      1.469701   343A      1.477829  
     344A      1.482631   345A      1.488444   346A      1.495075  
     347A      1.498650   348A      1.503100   349A      1.508653  
     350A      1.525831   351A      1.528370   352A      1.542223  
     353A      1.553422   354A      1.559406   355A      1.563666  
     356A      1.573122   357A      1.584307   358A      1.589011  
     359A      1.602136   360A      1.606063   361A      1.614903  
     362A      1.618987   363A      1.620296   364A      1.624619  
     365A      1.626034   366A      1.639926   367A      1.653564  
     368A      1.663662   369A      1.667272   370A      1.673865  
     371A      1.680921   372A      1.693638   373A      1.700239  
     374A      1.705316   375A      1.715470   376A      1.721388  
     377A      1.725156   378A      1.740190   379A      1.745594  
     380A      1.749708   381A      1.757893   382A      1.764573  
     383A      1.771383   384A      1.778057   385A      1.780594  
     386A      1.787848   387A      1.793275   388A      1.800964  
     389A      1.811996   390A      1.821343   391A      1.823890  
     392A      1.829921   393A      1.832006   394A      1.837956  
     395A      1.844119   396A      1.851411   397A      1.852759  
     398A      1.858434   399A      1.867478   400A      1.877200  
     401A      1.879859   402A      1.883745   403A      1.896811  
     404A      1.901580   405A      1.907165   406A      1.908294  
     407A      1.920223   408A      1.927168   409A      1.934319  
     410A      1.936239   411A      1.945154   412A      1.954030  
     413A      1.960859   414A      1.964656   415A      1.967035  
     416A      1.978314   417A      1.983877   418A      1.990823  
     419A      2.000222   420A      2.005407   421A      2.011666  
     422A      2.023289   423A      2.026071   424A      2.033039  
     425A      2.044332   426A      2.048723   427A      2.055305  
     428A      2.062222   429A      2.067965   430A      2.072610  
     431A      2.074770   432A      2.076656   433A      2.078806  
     434A      2.085853   435A      2.088771   436A      2.096922  
     437A      2.098475   438A      2.100810   439A      2.107727  
     440A      2.112757   441A      2.116221   442A      2.122105  
     443A      2.128690   444A      2.136571   445A      2.147240  
     446A      2.154164   447A      2.160329   448A      2.164318  
     449A      2.169868   450A      2.173157   451A      2.180441  
     452A      2.187782   453A      2.196056   454A      2.202119  
     455A      2.209316   456A      2.215222   457A      2.222983  
     458A      2.230955   459A      2.235431   460A      2.237868  
     461A      2.244655   462A      2.249801   463A      2.255009  
     464A      2.258319   465A      2.265289   466A      2.269600  
     467A      2.280743   468A      2.291329   469A      2.293712  
     470A      2.294965   471A      2.300828   472A      2.309451  
     473A      2.313351   474A      2.325620   475A      2.336312  
     476A      2.348728   477A      2.355219   478A      2.360100  
     479A      2.369324   480A      2.377835   481A      2.383308  
     482A      2.396726   483A      2.402087   484A      2.411767  
     485A      2.425450   486A      2.436133   487A      2.449262  
     488A      2.462263   489A      2.475312   490A      2.477212  
     491A      2.485039   492A      2.498563   493A      2.503522  
     494A      2.504828   495A      2.508559   496A      2.520835  
     497A      2.524123   498A      2.530141   499A      2.540627  
     500A      2.547425   501A      2.552422   502A      2.559607  
     503A      2.572090   504A      2.582088   505A      2.589408  
     506A      2.602240   507A      2.603579   508A      2.610139  
     509A      2.622849   510A      2.625326   511A      2.632108  
     512A      2.646598   513A      2.653707   514A      2.659581  
     515A      2.665020   516A      2.676338   517A      2.681259  
     518A      2.686198   519A      2.687662   520A      2.697467  
     521A      2.700435   522A      2.715006   523A      2.717121  
     524A      2.721663   525A      2.725473   526A      2.731144  
     527A      2.736339   528A      2.751423   529A      2.758905  
     530A      2.769494   531A      2.775924   532A      2.783560  
     533A      2.790899   534A      2.797852   535A      2.806483  
     536A      2.808553   537A      2.818374   538A      2.835031  
     539A      2.840493   540A      2.842161   541A      2.856228  
     542A      2.857219   543A      2.869949   544A      2.882141  
     545A      2.890576   546A      2.894823   547A      2.903585  
     548A      2.916289   549A      2.929226   550A      2.933322  
     551A      2.935588   552A      2.946049   553A      2.955238  
     554A      2.980915   555A      2.989569   556A      3.003013  
     557A      3.014610   558A      3.020075   559A      3.029141  
     560A      3.046363   561A      3.051413   562A      3.070297  
     563A      3.085233   564A      3.096467   565A      3.106055  
     566A      3.109958   567A      3.114556   568A      3.124399  
     569A      3.129720   570A      3.130252   571A      3.139520  
     572A      3.146755   573A      3.150159   574A      3.166950  
     575A      3.176737   576A      3.179050   577A      3.180554  
     578A      3.189973   579A      3.201085   580A      3.212511  
     581A      3.217085   582A      3.229475   583A      3.233556  
     584A      3.251363   585A      3.255700   586A      3.264924  
     587A      3.276613   588A      3.280338   589A      3.284285  
     590A      3.292624   591A      3.302611   592A      3.304667  
     593A      3.309460   594A      3.321816   595A      3.331118  
     596A      3.344474   597A      3.354577   598A      3.363374  
     599A      3.370039   600A      3.374698   601A      3.382581  
     602A      3.386879   603A      3.396399   604A      3.396547  
     605A      3.399508   606A      3.411941   607A      3.419197  
     608A      3.433957   609A      3.439491   610A      3.450674  
     611A      3.454105   612A      3.462219   613A      3.478973  
     614A      3.479787   615A      3.484348   616A      3.492805  
     617A      3.497427   618A      3.509698   619A      3.517914  
     620A      3.521088   621A      3.530104   622A      3.541784  
     623A      3.559749   624A      3.561744   625A      3.587253  
     626A      3.598243   627A      3.599350   628A      3.613941  
     629A      3.624158   630A      3.631465   631A      3.642422  
     632A      3.651567   633A      3.669411   634A      3.675424  
     635A      3.678567   636A      3.683847   637A      3.706705  
     638A      3.715381   639A      3.724810   640A      3.737672  
     641A      3.743836   642A      3.754455   643A      3.763475  
     644A      3.771218   645A      3.780803   646A      3.796385  
     647A      3.812298   648A      3.827728   649A      3.838641  
     650A      3.847393   651A      3.856401   652A      3.870484  
     653A      3.876490   654A      3.896579   655A      3.900122  
     656A      3.908422   657A      3.917863   658A      3.931234  
     659A      3.935175   660A      3.941275   661A      3.967918  
     662A      3.983585   663A      3.995735   664A      3.997436  
     665A      4.011798   666A      4.027290   667A      4.035424  
     668A      4.039885   669A      4.047626   670A      4.065045  
     671A      4.072724   672A      4.083186   673A      4.085376  
     674A      4.093866   675A      4.112268   676A      4.113532  
     677A      4.132756   678A      4.148189   679A      4.163380  
     680A      4.170661   681A      4.175580   682A      4.186954  
     683A      4.190706   684A      4.197337   685A      4.207092  
     686A      4.211781   687A      4.215347   688A      4.223813  
     689A      4.257276   690A      4.261225   691A      4.271129  
     692A      4.283071   693A      4.293497   694A      4.296402  
     695A      4.320340   696A      4.327898   697A      4.334799  
     698A      4.353175   699A      4.366577   700A      4.395476  
     701A      4.410456   702A      4.426640   703A      4.439234  
     704A      4.454237   705A      4.462143   706A      4.477305  
     707A      4.487744   708A      4.508877   709A      4.524567  
     710A      4.556735   711A      4.570433   712A      4.595527  
     713A      4.606345   714A      4.633864   715A      4.636127  
     716A      4.670441   717A      4.692354   718A      4.706782  
     719A      4.717051   720A      4.734611   721A      4.747658  
     722A      4.775864   723A      4.792972   724A      4.832982  
     725A      4.841819   726A      4.847170   727A      4.873185  
     728A      4.883749   729A      4.894887   730A      4.918518  
     731A      4.935622   732A      4.948320   733A      4.957750  
     734A      4.980130   735A      4.987271   736A      5.012734  
     737A      5.031080   738A      5.056801   739A      5.069580  
     740A      5.090017   741A      5.093311   742A      5.117023  
     743A      5.126869   744A      5.155226   745A      5.174867  
     746A      5.185753   747A      5.208950   748A      5.235388  
     749A      5.255752   750A      5.284951   751A      5.302076  
     752A      5.323591   753A      5.372218   754A      5.408923  
     755A      5.470843   756A      5.514921   757A      5.556457  
     758A      5.610361   759A      5.618164   760A      5.623189  
     761A      5.695491   762A      5.748138   763A      5.787551  
     764A      5.827858   765A      5.853700   766A      5.892323  
     767A      5.931570   768A      5.975088   769A      6.083123  
     770A      6.166984   771A      6.259621   772A      6.339085  
     773A      6.393274   774A      6.883554   775A      6.912042  
     776A      6.929714   777A      6.933298   778A      7.068768  
     779A      7.312897   780A      7.499726   781A     10.702378  
     782A     10.715372   783A     10.736105   784A     10.744559  
     785A     10.777838   786A     10.793633   787A     10.807146  
     788A     10.853921   789A     11.256819   790A     11.295306  
     791A     11.358409   792A     11.422285   793A     22.149995  
     794A     22.239894   795A     22.384908   796A     22.432583  
     797A     22.473192   798A     22.516030   799A     22.548609  
     800A     22.554979   801A     22.627081   802A     22.665244  
     803A     22.707109   804A     22.793207   805A     22.880510  
     806A     23.182659   807A     23.243911   808A     25.350760  
     809A     25.736572   810A     25.875208   811A     25.957140  
     812A     31.956983   813A     32.329330   814A     33.093481  
     815A     44.551634  

    Final Occupation by Irrep:
              A 
    DOCC [   100 ]
    NA   [   100 ]
    NB   [   100 ]

  @DF-RKS Final Energy: -2660.08925191999833

   => Energetics <=

    Nuclear Repulsion Energy =           2739.6414035308466737
    One-Electron Energy =               -9107.8606817869131191
    Two-Electron Energy =                3892.8915760554505141
    DFT Exchange-Correlation Energy =    -184.6556825149525025
    Empirical Dispersion Energy =          -0.1058672044295006
    VV10 Nonlocal Energy =                  0.0000000000000000
    Total Energy =                      -2660.0892519199983326

Computation Completed


Properties will be evaluated at   0.000000,   0.000000,   0.000000 [a0]

Properties computed using the SCF density matrix


 Multipole Moments:

 ------------------------------------------------------------------------------------
     Multipole            Electronic (a.u.)      Nuclear  (a.u.)        Total (a.u.)
 ------------------------------------------------------------------------------------

 L = 1.  Multiply by 2.5417464519 to convert [e a0] to [Debye]
 Dipole X            :       -398.3148595          397.9924570           -0.3224025
 Dipole Y            :         56.4729565          -57.1155149           -0.6425584
 Dipole Z            :         52.2688437          -52.5174725           -0.2486288
 Magnitude           :                                                    0.7606845

 ------------------------------------------------------------------------------------

*** tstop() called on choehoyun-ui-MacBookAir.local at Sun Aug  9 09:53:11 2026
Module time:
	user time   =    1118.87 seconds =      18.65 minutes
	system time =      21.24 seconds =       0.35 minutes
	total time  =        168 seconds =       2.80 minutes
Total time:
	user time   =    1118.87 seconds =      18.65 minutes
	system time =      21.24 seconds =       0.35 minutes
	total time  =        168 seconds =       2.80 minutes

    Psi4 stopped on: Sunday, 09 August 2026 09:53AM
    Psi4 wall time for execution: 0:02:47.95

*** Psi4 exiting successfully. Buy a developer a beer!
