
    -----------------------------------------------------------------------
          Psi4: An Open-Source Ab Initio Electronic Structure Package
                               Psi4 1.11 release

                         Git: Rev {} zzzzzzz 


    D. G. A. Smith, L. A. Burns, A. C. Simmonett, R. M. Parrish,
    M. C. Schieber, R. Galvelis, P. Kraus, H. Kruse, R. Di Remigio,
    A. Alenaizan, A. M. James, S. Lehtola, J. P. Misiewicz, M. Scheurer,
    R. A. Shaw, J. B. Schriber, Y. Xie, Z. L. Glick, D. A. Sirianni,
    J. S. O'Brien, J. M. Waldrop, A. Kumar, E. G. Hohenstein,
    B. P. Pritchard, B. R. Brooks, H. F. Schaefer III, A. Yu. Sokolov,
    K. Patkowski, A. E. DePrince III, U. Bozkaya, R. A. King,
    F. A. Evangelista, J. M. Turney, T. D. Crawford, C. D. Sherrill,
    J. Chem. Phys. 152(18) 184108 (2020). https://doi.org/10.1063/5.0006002

                            Additional Code Authors
    E. T. Seidl, C. L. Janssen, E. F. Valeev, M. L. Leininger,
    J. F. Gonthier, R. M. Richard, H. R. McAlexander, M. Saitow, X. Wang,
    P. Verma, M. H. Lechner, A. Jiang, S. Behnle, A. G. Heide,
    M. F. Herbst, D. L. Poole, T. Győri, E. C. Mitchell, J. P. Pederson,
    and A. M. Wallace

             Previous Authors, Complete List of Code Contributors,
                       and Citations for Specific Modules
    https://github.com/psi4/psi4/blob/master/codemeta.json
    https://github.com/psi4/psi4/graphs/contributors
    https://psicode.org/psi4manual/master/introduction.html#citing-psifour

    -----------------------------------------------------------------------


    Psi4 started on: Monday, 10 August 2026 06:29PM

    Process ID: 74910
    Host:       choehoyun-ui-MacBookAir.local
    PSIDATADIR: /Users/hoyoun/micromamba/envs/psi4env/share/psi4
    Memory:     500.0 MiB
    Threads:    8
    Addons:     a̶d̶c̶c̶, a̶m̶b̶i̶t̶, b̶s̶e̶, c̶c̶t̶3̶, c̶f̶o̶u̶r̶, c̶h̶e̶m̶p̶s̶2̶, c̶p̶p̶e̶, d̶d̶x̶, dftd3,
                d̶f̶t̶d̶4̶, dkh, ecpint, einsums, f̶o̶r̶t̶e̶, gauxc, g̶c̶p̶, g̶d̶m̶a̶,
                g̶e̶o̶m̶e̶t̶r̶i̶c̶, g̶p̶u̶_̶d̶f̶c̶c̶, i̶n̶t̶e̶g̶r̶a̶t̶o̶r̶x̶x̶, i̶p̶i̶,
                l̶i̶b̶e̶f̶p̶, m̶d̶i̶, m̶p̶2̶d̶, m̶r̶c̶c̶, ooo, o̶p̶e̶n̶f̶e̶r̶m̶i̶o̶n̶p̶s̶i̶4̶,
                pcmsolver, p̶s̶i̶4̶f̶o̶c̶k̶c̶i̶, p̶s̶i̶x̶a̶s̶, p̶y̶e̶i̶n̶s̶u̶m̶s̶, r̶e̶s̶p̶,
                s̶i̶m̶i̶n̶t̶, s̶n̶s̶m̶p̶2̶, v̶2̶r̶d̶m̶_̶c̶a̶s̶s̶c̶f̶

  ==> Input File <==

--------------------------------------------------------------------------
memory 3 GB
molecule mol {
0 1
N -0.77907191891987 0.10994831652438 0.00000000000000
N -0.03149961692707 0.01698457212558 1.22272453182081
N -0.03149961692707 0.01698457212558 -1.22272453182081
H 0.73807613796439 -0.65953379561677 -1.13084893185355
H 0.38903763045231 0.93051629245045 -1.38896879019304
H 0.73807613796439 -0.65953379561677 1.13084893185355
H 0.38903763045231 0.93051629245045 1.38896879019304
H -1.41215638405939 -0.68588245444291 0.00000000000000
units angstrom
no_reorient
no_com
}
set basis def2-SVP
set scf_type df
set freeze_core true
set e_convergence 8
energy('b3lyp-d3bj')
--------------------------------------------------------------------------

  Memory set to   2.794 GiB by Python driver.

Scratch directory: /Users/hoyoun/Documents/Yonsei_AX_Camp/(진짜_이게_최종)/calibration/dft_work/_scratch/N3H5_1/
   => Libint2 <=

    Primary   basis highest AM E, G, H:  7, 6, 3
    Auxiliary basis highest AM E, G, H:  7, 7, 4
    Onebody   basis highest AM E, G, H:  -, -, -
    Solid Harmonics ordering:            Gaussian

*** tstart() called on choehoyun-ui-MacBookAir.local
*** at Mon Aug 10 18:29:53 2026

   => Loading Basis Set <=

    Name: DEF2-SVP
    Role: ORBITAL
    Keyword: BASIS
    atoms 1-3 entry N          line   110 file /Users/hoyoun/micromamba/envs/psi4env/share/psi4/basis/def2-svp.gbs 
    atoms 4-8 entry H          line    15 file /Users/hoyoun/micromamba/envs/psi4env/share/psi4/basis/def2-svp.gbs 

   => B3LYP-D3(BJ): Empirical Dispersion <=

    Grimme's -D3 (BJ-damping) Dispersion Correction
    Grimme S.; Ehrlich S.; Goerigk L. (2011), J. Comput. Chem., 32: 1456

        s6 =       1.000000
        s8 =       1.988900
        a1 =       0.398100
        a2 =       4.421100


         ---------------------------------------------------------
                                   SCF
               by Justin Turney, Rob Parrish, Andy Simmonett
                          and Daniel G. A. Smith
                              RKS Reference
                        8 Threads,   2861 MiB Core
         ---------------------------------------------------------

  ==> Geometry <==

    Molecular point group: cs
    Full point group: Cs

    Geometry (in Angstrom), charge = 0, multiplicity = 1:

       Center              X                  Y                   Z               Mass       
    ------------   -----------------  -----------------  -----------------  -----------------
         N           -0.779071918920     0.109948316524     0.000000000000    14.003074004430
         N           -0.031499616927     0.016984572126     1.222724531821    14.003074004430
         N           -0.031499616927     0.016984572126    -1.222724531821    14.003074004430
         H            0.738076137964    -0.659533795617    -1.130848931854     1.007825032230
         H            0.389037630452     0.930516292450    -1.388968790193     1.007825032230
         H            0.738076137964    -0.659533795617     1.130848931854     1.007825032230
         H            0.389037630452     0.930516292450     1.388968790193     1.007825032230
         H           -1.412156384059    -0.685882454443     0.000000000000     1.007825032230

  Running in cs symmetry.

  Rotational constants: A =      1.10808  B =      0.32681  C =      0.27954 [cm^-1]
  Rotational constants: A =  33219.29695  B =   9797.39864  C =   8380.44663 [MHz]
  Nuclear repulsion =   83.692448570170967

  Charge       = 0
  Multiplicity = 1
  Electrons    = 26
  Nalpha       = 13
  Nbeta        = 13

  ==> Algorithm <==

  SCF Algorithm Type is DF.
  DIIS enabled.
  MOM disabled.
  Fractional occupation disabled.
  Guess Type is SAD.
  Energy threshold   = 1.00e-08
  Density threshold  = 1.00e-06
  Integral threshold = 1.00e-12

  ==> Primary Basis <==

  Basis Set: DEF2-SVP
    Blend: DEF2-SVP
    Number of shells: 33
    Number of basis functions: 67
    Number of Cartesian functions: 70
    Spherical Harmonics?: true
    Max angular momentum: 2

  ==> DFT Potential <==

   => LibXC <=

    Version 7.1.2
    S. Lehtola, C. Steigemann, M. J. T. Oliveira, and M. A. L. Marques,  SoftwareX 7, 1–5 (2018) (10.1016/j.softx.2017.11.002)

   => Composite Functional: B3LYP-D3BJ2B <= 

    B3LYP-d3bj2b Hyb-GGA Exchange-Correlation Functional

    P. J. Stephens, F. J. Devlin, C. F. Chabalowski, and M. J. Frisch,  J. Phys. Chem. 98, 11623 (1994) (10.1021/j100096a001)

    Deriv               =              1
    GGA                 =           TRUE
    Meta                =          FALSE

    Exchange Hybrid     =           TRUE
    MP2 Hybrid          =          FALSE

   => Exchange Functionals <=

    0.0800   Slater exchange
    0.7200         Becke 88

   => Exact (HF) Exchange <=

    0.2000               HF 

   => Correlation Functionals <=

    0.1900   Vosko, Wilk & Nusair (VWN5_RPA)
    0.8100   Lee, Yang & Parr

   => LibXC Density Thresholds  <==

    XC_HYB_GGA_XC_B3LYP:  1.00E-15 

   => Molecular Quadrature <=

    Radial Scheme          =       TREUTLER
    Pruning Scheme         =           NONE
    Nuclear Scheme         =       TREUTLER

    Blocking Scheme        =         OCTREE
    BS radius alpha        =              1
    Pruning alpha          =              1
    Radial Points          =             75
    Spherical Points       =            302
    Total Points           =         172847
    Total Blocks           =           1355
    Max Points             =            256
    Max Functions          =             67
    Weights Tolerance      =       1.00E-15

   => Loading Basis Set <=

    Name: (DEF2-SVP AUX)
    Role: JKFIT
    Keyword: DF_BASIS_SCF
    atoms 1-3 entry N          line   258 file /Users/hoyoun/micromamba/envs/psi4env/share/psi4/basis/def2-universal-jkfit.gbs 
    atoms 4-8 entry H          line    18 file /Users/hoyoun/micromamba/envs/psi4env/share/psi4/basis/def2-universal-jkfit.gbs 

  ==> Integral Setup <==

  DFHelper Memory: AOs need 0.013 GiB; user supplied 1.783 GiB. 
  SCF_SUBTYPE=INCORE selected. In-core MEM_DF algorithm will be used.
  Using in-core AOs.

  ==> MemDFJK: Density-Fitted J/K Matrices <==

    J tasked:                   Yes
    K tasked:                   Yes
    wK tasked:                   No
    OpenMP threads:               8
    Memory [MiB]:              1825
    Algorithm:                 Core
    Schwarz Cutoff:           1E-12
    Mask sparsity (%):       0.0446
    Fitting Condition:        1E-10

   => Auxiliary Basis Set <=

  Basis Set: (DEF2-SVP AUX)
    Blend: DEF2-UNIVERSAL-JKFIT
    Number of shells: 105
    Number of basis functions: 321
    Number of Cartesian functions: 379
    Spherical Harmonics?: true
    Max angular momentum: 4

  Cached 100.0% of DFT collocation blocks in 0.313 [GiB].

  Minimum eigenvalue in the overlap matrix is 6.6987175262E-03.
  Reciprocal condition number of the overlap matrix is 1.3853987208E-03.
    Using symmetric orthogonalization.

  ==> Pre-Iterations <==

  SCF Guess: Superposition of Atomic Densities via on-the-fly atomic UHF (no occupation information).

   -------------------------
    Irrep   Nso     Nmo    
   -------------------------
     A'        38      38 
     A"        29      29 
   -------------------------
    Total      67      67
   -------------------------

  ==> Iterations <==

                           Total Energy        Delta E     RMS |[F,P]|

   @DF-RKS iter SAD:  -166.62481289821451   -1.66625e+02   0.00000e+00 
   @DF-RKS iter   1:  -166.80913543559376   -1.84323e-01   1.55979e-02 DIIS/ADIIS
   @DF-RKS iter   2:  -166.66088878043368    1.48247e-01   1.94387e-02 DIIS/ADIIS
   @DF-RKS iter   3:  -167.06804287619829   -4.07154e-01   7.77704e-04 DIIS/ADIIS
   @DF-RKS iter   4:  -167.06848210328369   -4.39227e-04   3.62010e-04 DIIS/ADIIS
   @DF-RKS iter   5:  -167.06857449672415   -9.23934e-05   1.81656e-04 DIIS/ADIIS
   @DF-RKS iter   6:  -167.06860428936045   -2.97926e-05   1.24252e-05 DIIS
   @DF-RKS iter   7:  -167.06860446249178   -1.73131e-07   2.40490e-06 DIIS
   @DF-RKS iter   8:  -167.06860446879782   -6.30604e-09   1.78563e-07 DIIS
  Energy and wave function converged.


  ==> Post-Iterations <==

   Electrons on quadrature grid:
      Ntotal   =   26.0000062312 ; deviation = 6.231e-06 

    Orbital Energies [Eh]
    ---------------------

    Doubly Occupied:                                                      

       1Ap   -14.357107     1App  -14.333568     2Ap   -14.333505  
       3Ap    -0.978582     2App   -0.838660     4Ap    -0.701797  
       5Ap    -0.519713     3App   -0.496109     4App   -0.460415  
       6Ap    -0.454627     7Ap    -0.286409     8Ap    -0.245901  
       5App   -0.239497  

    Virtual:                                                              

       9Ap     0.040490     6App    0.090555    10Ap     0.091531  
      11Ap     0.108052     7App    0.154068    12Ap     0.187880  
       8App    0.266759     9App    0.538002    13Ap     0.542465  
      10App    0.583282    14Ap     0.604458    15Ap     0.630570  
      16Ap     0.686645    11App    0.710606    17Ap     0.720883  
      18Ap     0.789658    19Ap     0.801307    12App    0.832829  
      13App    0.851657    20Ap     0.862357    21Ap     0.879118  
      14App    0.914122    22Ap     1.060872    15App    1.128126  
      23Ap     1.274712    16App    1.276462    17App    1.522684  
      24Ap     1.527378    18App    1.571520    25Ap     1.702081  
      26Ap     1.768398    19App    1.793820    20App    1.851867  
      27Ap     1.856373    28Ap     2.033172    21App    2.048343  
      29Ap     2.077068    22App    2.083431    30Ap     2.094151  
      31Ap     2.181971    23App    2.253779    24App    2.470241  
      32Ap     2.545434    25App    2.673748    33Ap     2.681938  
      34Ap     2.759459    26App    2.891551    27App    2.983171  
      35Ap     3.029236    36Ap     3.097066    37Ap     3.261058  
      28App    3.337354    29App    3.373786    38Ap     3.456581  

    Final Occupation by Irrep:
             Ap   App 
    DOCC [     8,    5 ]
    NA   [     8,    5 ]
    NB   [     8,    5 ]

  @DF-RKS Final Energy:  -167.06860446879782

   => Energetics <=

    Nuclear Repulsion Energy =             83.6924485701709671
    One-Electron Energy =                -391.8942459092839954
    Two-Electron Energy =                 159.4075340113888899
    DFT Exchange-Correlation Energy =     -18.2680285294996594
    Empirical Dispersion Energy =          -0.0063126115740445
    VV10 Nonlocal Energy =                  0.0000000000000000
    Total Energy =                       -167.0686044687978153

Computation Completed


Properties will be evaluated at   0.000000,   0.000000,   0.000000 [a0]

Properties computed using the SCF density matrix


 Multipole Moments:

 ------------------------------------------------------------------------------------
     Multipole            Electronic (a.u.)      Nuclear  (a.u.)        Total (a.u.)
 ------------------------------------------------------------------------------------

 L = 1.  Multiply by 2.5417464519 to convert [e a0] to [Debye]
 Dipole X            :         10.4843328           -9.5477031            0.9366297
 Dipole Y            :         -1.7919212            1.6317875           -0.1601337
 Dipole Z            :          0.0000000            0.0000000            0.0000000
 Magnitude           :                                                    0.9502199

 ------------------------------------------------------------------------------------

*** tstop() called on choehoyun-ui-MacBookAir.local at Mon Aug 10 18:29:54 2026
Module time:
	user time   =       3.49 seconds =       0.06 minutes
	system time =       0.16 seconds =       0.00 minutes
	total time  =          1 seconds =       0.02 minutes
Total time:
	user time   =       3.49 seconds =       0.06 minutes
	system time =       0.16 seconds =       0.00 minutes
	total time  =          1 seconds =       0.02 minutes

    Psi4 stopped on: Monday, 10 August 2026 06:29PM
    Psi4 wall time for execution: 0:00:01.12

*** Psi4 exiting successfully. Buy a developer a beer!
