
    -----------------------------------------------------------------------
          Psi4: An Open-Source Ab Initio Electronic Structure Package
                               Psi4 1.11 release

                         Git: Rev {} zzzzzzz 


    D. G. A. Smith, L. A. Burns, A. C. Simmonett, R. M. Parrish,
    M. C. Schieber, R. Galvelis, P. Kraus, H. Kruse, R. Di Remigio,
    A. Alenaizan, A. M. James, S. Lehtola, J. P. Misiewicz, M. Scheurer,
    R. A. Shaw, J. B. Schriber, Y. Xie, Z. L. Glick, D. A. Sirianni,
    J. S. O'Brien, J. M. Waldrop, A. Kumar, E. G. Hohenstein,
    B. P. Pritchard, B. R. Brooks, H. F. Schaefer III, A. Yu. Sokolov,
    K. Patkowski, A. E. DePrince III, U. Bozkaya, R. A. King,
    F. A. Evangelista, J. M. Turney, T. D. Crawford, C. D. Sherrill,
    J. Chem. Phys. 152(18) 184108 (2020). https://doi.org/10.1063/5.0006002

                            Additional Code Authors
    E. T. Seidl, C. L. Janssen, E. F. Valeev, M. L. Leininger,
    J. F. Gonthier, R. M. Richard, H. R. McAlexander, M. Saitow, X. Wang,
    P. Verma, M. H. Lechner, A. Jiang, S. Behnle, A. G. Heide,
    M. F. Herbst, D. L. Poole, T. Győri, E. C. Mitchell, J. P. Pederson,
    and A. M. Wallace

             Previous Authors, Complete List of Code Contributors,
                       and Citations for Specific Modules
    https://github.com/psi4/psi4/blob/master/codemeta.json
    https://github.com/psi4/psi4/graphs/contributors
    https://psicode.org/psi4manual/master/introduction.html#citing-psifour

    -----------------------------------------------------------------------


    Psi4 started on: Monday, 10 August 2026 06:38PM

    Process ID: 76033
    Host:       choehoyun-ui-MacBookAir.local
    PSIDATADIR: /Users/hoyoun/micromamba/envs/psi4env/share/psi4
    Memory:     500.0 MiB
    Threads:    8
    Addons:     a̶d̶c̶c̶, a̶m̶b̶i̶t̶, b̶s̶e̶, c̶c̶t̶3̶, c̶f̶o̶u̶r̶, c̶h̶e̶m̶p̶s̶2̶, c̶p̶p̶e̶, d̶d̶x̶, dftd3,
                d̶f̶t̶d̶4̶, dkh, ecpint, einsums, f̶o̶r̶t̶e̶, gauxc, g̶c̶p̶, g̶d̶m̶a̶,
                g̶e̶o̶m̶e̶t̶r̶i̶c̶, g̶p̶u̶_̶d̶f̶c̶c̶, i̶n̶t̶e̶g̶r̶a̶t̶o̶r̶x̶x̶, i̶p̶i̶,
                l̶i̶b̶e̶f̶p̶, m̶d̶i̶, m̶p̶2̶d̶, m̶r̶c̶c̶, ooo, o̶p̶e̶n̶f̶e̶r̶m̶i̶o̶n̶p̶s̶i̶4̶,
                pcmsolver, p̶s̶i̶4̶f̶o̶c̶k̶c̶i̶, p̶s̶i̶x̶a̶s̶, p̶y̶e̶i̶n̶s̶u̶m̶s̶, r̶e̶s̶p̶,
                s̶i̶m̶i̶n̶t̶, s̶n̶s̶m̶p̶2̶, v̶2̶r̶d̶m̶_̶c̶a̶s̶s̶c̶f̶

  ==> Input File <==

--------------------------------------------------------------------------
memory 3 GB
molecule mol {
0 1
C -0.14670840370048 1.74759925743122 -0.00162117864064
O 0.53179440481275 0.50790810680572 0.02613614478336
O -0.53179440481275 -0.50790810680572 0.02613614478336
C 0.14670840370048 -1.74759925743122 -0.00162117864064
H 0.64675035773673 2.49676125697888 0.00349270757784
H -0.74787425078116 1.85229381948329 -0.90980658132812
H -0.77962222418419 1.87481881070179 0.88179890760756
H -0.64675035773673 -2.49676125697888 0.00349270757784
H 0.74787425078116 -1.85229381948329 -0.90980658132812
H 0.77962222418419 -1.87481881070179 0.88179890760756
units angstrom
no_reorient
no_com
}
set basis def2-SVP
set scf_type df
set freeze_core true
set e_convergence 8
energy('b3lyp-d3bj')
--------------------------------------------------------------------------

  Memory set to   2.794 GiB by Python driver.

Scratch directory: /Users/hoyoun/Documents/Yonsei_AX_Camp/(진짜_이게_최종)/calibration/dft_work/_scratch/P27/
   => Libint2 <=

    Primary   basis highest AM E, G, H:  7, 6, 3
    Auxiliary basis highest AM E, G, H:  7, 7, 4
    Onebody   basis highest AM E, G, H:  -, -, -
    Solid Harmonics ordering:            Gaussian

*** tstart() called on choehoyun-ui-MacBookAir.local
*** at Mon Aug 10 18:38:58 2026

   => Loading Basis Set <=

    Name: DEF2-SVP
    Role: ORBITAL
    Keyword: BASIS
    atoms 1, 4 entry C          line    90 file /Users/hoyoun/micromamba/envs/psi4env/share/psi4/basis/def2-svp.gbs 
    atoms 2-3  entry O          line   130 file /Users/hoyoun/micromamba/envs/psi4env/share/psi4/basis/def2-svp.gbs 
    atoms 5-10 entry H          line    15 file /Users/hoyoun/micromamba/envs/psi4env/share/psi4/basis/def2-svp.gbs 

   => B3LYP-D3(BJ): Empirical Dispersion <=

    Grimme's -D3 (BJ-damping) Dispersion Correction
    Grimme S.; Ehrlich S.; Goerigk L. (2011), J. Comput. Chem., 32: 1456

        s6 =       1.000000
        s8 =       1.988900
        a1 =       0.398100
        a2 =       4.421100


         ---------------------------------------------------------
                                   SCF
               by Justin Turney, Rob Parrish, Andy Simmonett
                          and Daniel G. A. Smith
                              RKS Reference
                        8 Threads,   2861 MiB Core
         ---------------------------------------------------------

  ==> Geometry <==

    Molecular point group: c2
    Full point group: C2

    Geometry (in Angstrom), charge = 0, multiplicity = 1:

       Center              X                  Y                   Z               Mass       
    ------------   -----------------  -----------------  -----------------  -----------------
         C           -0.146708403700     1.747599257431    -0.001621178641    12.000000000000
         O            0.531794404813     0.507908106806     0.026136144783    15.994914619570
         O           -0.531794404813    -0.507908106806     0.026136144783    15.994914619570
         C            0.146708403700    -1.747599257431    -0.001621178641    12.000000000000
         H            0.646750357737     2.496761256979     0.003492707578     1.007825032230
         H           -0.747874250781     1.852293819483    -0.909806581328     1.007825032230
         H           -0.779622224184     1.874818810702     0.881798907608     1.007825032230
         H           -0.646750357737    -2.496761256979     0.003492707578     1.007825032230
         H            0.747874250781    -1.852293819483    -0.909806581328     1.007825032230
         H            0.779622224184    -1.874818810702     0.881798907608     1.007825032230

  Running in c2 symmetry.

  Rotational constants: A =      1.05250  B =      0.15136  C =      0.13946 [cm^-1]
  Rotational constants: A =  31553.08017  B =   4537.65928  C =   4180.97837 [MHz]
  Nuclear repulsion =  133.353255763460425

  Charge       = 0
  Multiplicity = 1
  Electrons    = 34
  Nalpha       = 17
  Nbeta        = 17

  ==> Algorithm <==

  SCF Algorithm Type is DF.
  DIIS enabled.
  MOM disabled.
  Fractional occupation disabled.
  Guess Type is SAD.
  Energy threshold   = 1.00e-08
  Density threshold  = 1.00e-06
  Integral threshold = 1.00e-12

  ==> Primary Basis <==

  Basis Set: DEF2-SVP
    Blend: DEF2-SVP
    Number of shells: 42
    Number of basis functions: 86
    Number of Cartesian functions: 90
    Spherical Harmonics?: true
    Max angular momentum: 2

  ==> DFT Potential <==

   => LibXC <=

    Version 7.1.2
    S. Lehtola, C. Steigemann, M. J. T. Oliveira, and M. A. L. Marques,  SoftwareX 7, 1–5 (2018) (10.1016/j.softx.2017.11.002)

   => Composite Functional: B3LYP-D3BJ2B <= 

    B3LYP-d3bj2b Hyb-GGA Exchange-Correlation Functional

    P. J. Stephens, F. J. Devlin, C. F. Chabalowski, and M. J. Frisch,  J. Phys. Chem. 98, 11623 (1994) (10.1021/j100096a001)

    Deriv               =              1
    GGA                 =           TRUE
    Meta                =          FALSE

    Exchange Hybrid     =           TRUE
    MP2 Hybrid          =          FALSE

   => Exchange Functionals <=

    0.0800   Slater exchange
    0.7200         Becke 88

   => Exact (HF) Exchange <=

    0.2000               HF 

   => Correlation Functionals <=

    0.1900   Vosko, Wilk & Nusair (VWN5_RPA)
    0.8100   Lee, Yang & Parr

   => LibXC Density Thresholds  <==

    XC_HYB_GGA_XC_B3LYP:  1.00E-15 

   => Molecular Quadrature <=

    Radial Scheme          =       TREUTLER
    Pruning Scheme         =           NONE
    Nuclear Scheme         =       TREUTLER

    Blocking Scheme        =         OCTREE
    BS radius alpha        =              1
    Pruning alpha          =              1
    Radial Points          =             75
    Spherical Points       =            302
    Total Points           =         215566
    Total Blocks           =           1658
    Max Points             =            256
    Max Functions          =             86
    Weights Tolerance      =       1.00E-15

   => Loading Basis Set <=

    Name: (DEF2-SVP AUX)
    Role: JKFIT
    Keyword: DF_BASIS_SCF
    atoms 1, 4 entry C          line   198 file /Users/hoyoun/micromamba/envs/psi4env/share/psi4/basis/def2-universal-jkfit.gbs 
    atoms 2-3  entry O          line   318 file /Users/hoyoun/micromamba/envs/psi4env/share/psi4/basis/def2-universal-jkfit.gbs 
    atoms 5-10 entry H          line    18 file /Users/hoyoun/micromamba/envs/psi4env/share/psi4/basis/def2-universal-jkfit.gbs 

  ==> Integral Setup <==

  DFHelper Memory: AOs need 0.026 GiB; user supplied 1.677 GiB. 
  SCF_SUBTYPE=INCORE selected. In-core MEM_DF algorithm will be used.
  Using in-core AOs.

  ==> MemDFJK: Density-Fitted J/K Matrices <==

    J tasked:                   Yes
    K tasked:                   Yes
    wK tasked:                   No
    OpenMP threads:               8
    Memory [MiB]:              1716
    Algorithm:                 Core
    Schwarz Cutoff:           1E-12
    Mask sparsity (%):       1.2439
    Fitting Condition:        1E-10

   => Auxiliary Basis Set <=

  Basis Set: (DEF2-SVP AUX)
    Blend: DEF2-UNIVERSAL-JKFIT
    Number of shells: 136
    Number of basis functions: 412
    Number of Cartesian functions: 484
    Spherical Harmonics?: true
    Max angular momentum: 4

  Cached 100.0% of DFT collocation blocks in 0.419 [GiB].

  Minimum eigenvalue in the overlap matrix is 1.1012990474E-02.
  Reciprocal condition number of the overlap matrix is 2.3144698510E-03.
    Using symmetric orthogonalization.

  ==> Pre-Iterations <==

  SCF Guess: Superposition of Atomic Densities via on-the-fly atomic UHF (no occupation information).

   -------------------------
    Irrep   Nso     Nmo    
   -------------------------
     A         43      43 
     B         43      43 
   -------------------------
    Total      86      86
   -------------------------

  ==> Iterations <==

                           Total Energy        Delta E     RMS |[F,P]|

   @DF-RKS iter SAD:  -229.27526585276814   -2.29275e+02   0.00000e+00 
   @DF-RKS iter   1:  -229.78861536252987   -5.13350e-01   1.02566e-02 DIIS/ADIIS
   @DF-RKS iter   2:  -229.79181654419378   -3.20118e-03   9.93914e-03 DIIS/ADIIS
   @DF-RKS iter   3:  -229.99260789598628   -2.00791e-01   6.39628e-04 DIIS/ADIIS
   @DF-RKS iter   4:  -229.99317067721799   -5.62781e-04   1.86976e-04 DIIS/ADIIS
   @DF-RKS iter   5:  -229.99320806051648   -3.73833e-05   9.27132e-05 DIIS
   @DF-RKS iter   6:  -229.99322048873137   -1.24282e-05   7.48528e-06 DIIS
   @DF-RKS iter   7:  -229.99322056887075   -8.01394e-08   1.34073e-06 DIIS
   @DF-RKS iter   8:  -229.99322057209238   -3.22163e-09   1.01360e-07 DIIS
  Energy and wave function converged.


  ==> Post-Iterations <==

   Electrons on quadrature grid:
      Ntotal   =   34.0000197826 ; deviation = 1.978e-05 

    Orbital Energies [Eh]
    ---------------------

    Doubly Occupied:                                                      

       1A    -19.177760     1B    -19.177731     2A    -10.231192  
       2B    -10.231183     3A     -1.095136     3B     -0.914077  
       4A     -0.680864     4B     -0.644687     5A     -0.510694  
       5B     -0.478506     6A     -0.473416     6B     -0.432697  
       7B     -0.399530     7A     -0.395082     8A     -0.333714  
       9A     -0.324455     8B     -0.235229  

    Virtual:                                                              

       9B      0.025890    10A      0.077466    10B      0.083606  
      11A      0.122889    12A      0.133226    11B      0.135469  
      13A      0.149513    12B      0.151731    13B      0.182668  
      14A      0.438192    15A      0.457539    14B      0.465096  
      15B      0.465867    16B      0.470745    16A      0.535480  
      17A      0.634032    17B      0.642449    18A      0.643665  
      18B      0.651110    19A      0.656253    19B      0.660948  
      20A      0.678939    20B      0.727261    21B      0.909832  
      21A      0.910210    22A      1.000429    22B      1.054329  
      23A      1.131783    23B      1.183527    24B      1.214383  
      24A      1.281278    25B      1.348129    25A      1.446820  
      26A      1.489604    27A      1.515230    26B      1.516042  
      27B      1.548168    28B      1.690943    28A      1.723928  
      29A      1.744690    29B      1.778307    30B      1.791974  
      30A      1.844555    31A      1.860192    31B      1.888992  
      32B      1.893072    32A      1.986359    33B      2.164570  
      33A      2.175277    34A      2.269924    35A      2.300834  
      34B      2.336419    35B      2.352398    36A      2.398229  
      37A      2.464959    36B      2.662433    38A      2.664663  
      37B      2.688809    38B      2.791174    39A      2.815473  
      40A      2.859629    39B      2.918523    40B      2.950214  
      41B      3.042561    41A      3.046037    42A      3.172618  
      43A      3.298442    42B      3.305073    43B      3.784480  

    Final Occupation by Irrep:
              A     B 
    DOCC [     9,    8 ]
    NA   [     9,    8 ]
    NB   [     9,    8 ]

  @DF-RKS Final Energy:  -229.99322057209238

   => Energetics <=

    Nuclear Repulsion Energy =            133.3532557634604245
    One-Electron Energy =                -577.6659250445846965
    Two-Electron Energy =                 238.7418903435895459
    DFT Exchange-Correlation Energy =     -24.4150273437817482
    Empirical Dispersion Energy =          -0.0074142907758885
    VV10 Nonlocal Energy =                  0.0000000000000000
    Total Energy =                       -229.9932205720923832

Computation Completed


Properties will be evaluated at   0.000000,   0.000000,   0.000000 [a0]

Properties computed using the SCF density matrix


 Multipole Moments:

 ------------------------------------------------------------------------------------
     Multipole            Electronic (a.u.)      Nuclear  (a.u.)        Total (a.u.)
 ------------------------------------------------------------------------------------

 L = 1.  Multiply by 2.5417464519 to convert [e a0] to [Debye]
 Dipole X            :          0.0000000           -0.0000000           -0.0000000
 Dipole Y            :          0.0000000            0.0000000            0.0000000
 Dipole Z            :         -0.6848171            0.6608263           -0.0239908
 Magnitude           :                                                    0.0239908

 ------------------------------------------------------------------------------------

*** tstop() called on choehoyun-ui-MacBookAir.local at Mon Aug 10 18:38:59 2026
Module time:
	user time   =       3.77 seconds =       0.06 minutes
	system time =       0.18 seconds =       0.00 minutes
	total time  =          1 seconds =       0.02 minutes
Total time:
	user time   =       3.77 seconds =       0.06 minutes
	system time =       0.18 seconds =       0.00 minutes
	total time  =          1 seconds =       0.02 minutes

    Psi4 stopped on: Monday, 10 August 2026 06:38PM
    Psi4 wall time for execution: 0:00:01.09

*** Psi4 exiting successfully. Buy a developer a beer!
