
    -----------------------------------------------------------------------
          Psi4: An Open-Source Ab Initio Electronic Structure Package
                               Psi4 1.11 release

                         Git: Rev {} zzzzzzz 


    D. G. A. Smith, L. A. Burns, A. C. Simmonett, R. M. Parrish,
    M. C. Schieber, R. Galvelis, P. Kraus, H. Kruse, R. Di Remigio,
    A. Alenaizan, A. M. James, S. Lehtola, J. P. Misiewicz, M. Scheurer,
    R. A. Shaw, J. B. Schriber, Y. Xie, Z. L. Glick, D. A. Sirianni,
    J. S. O'Brien, J. M. Waldrop, A. Kumar, E. G. Hohenstein,
    B. P. Pritchard, B. R. Brooks, H. F. Schaefer III, A. Yu. Sokolov,
    K. Patkowski, A. E. DePrince III, U. Bozkaya, R. A. King,
    F. A. Evangelista, J. M. Turney, T. D. Crawford, C. D. Sherrill,
    J. Chem. Phys. 152(18) 184108 (2020). https://doi.org/10.1063/5.0006002

                            Additional Code Authors
    E. T. Seidl, C. L. Janssen, E. F. Valeev, M. L. Leininger,
    J. F. Gonthier, R. M. Richard, H. R. McAlexander, M. Saitow, X. Wang,
    P. Verma, M. H. Lechner, A. Jiang, S. Behnle, A. G. Heide,
    M. F. Herbst, D. L. Poole, T. Győri, E. C. Mitchell, J. P. Pederson,
    and A. M. Wallace

             Previous Authors, Complete List of Code Contributors,
                       and Citations for Specific Modules
    https://github.com/psi4/psi4/blob/master/codemeta.json
    https://github.com/psi4/psi4/graphs/contributors
    https://psicode.org/psi4manual/master/introduction.html#citing-psifour

    -----------------------------------------------------------------------


    Psi4 started on: Monday, 10 August 2026 06:29PM

    Process ID: 74858
    Host:       choehoyun-ui-MacBookAir.local
    PSIDATADIR: /Users/hoyoun/micromamba/envs/psi4env/share/psi4
    Memory:     500.0 MiB
    Threads:    8
    Addons:     a̶d̶c̶c̶, a̶m̶b̶i̶t̶, b̶s̶e̶, c̶c̶t̶3̶, c̶f̶o̶u̶r̶, c̶h̶e̶m̶p̶s̶2̶, c̶p̶p̶e̶, d̶d̶x̶, dftd3,
                d̶f̶t̶d̶4̶, dkh, ecpint, einsums, f̶o̶r̶t̶e̶, gauxc, g̶c̶p̶, g̶d̶m̶a̶,
                g̶e̶o̶m̶e̶t̶r̶i̶c̶, g̶p̶u̶_̶d̶f̶c̶c̶, i̶n̶t̶e̶g̶r̶a̶t̶o̶r̶x̶x̶, i̶p̶i̶,
                l̶i̶b̶e̶f̶p̶, m̶d̶i̶, m̶p̶2̶d̶, m̶r̶c̶c̶, ooo, o̶p̶e̶n̶f̶e̶r̶m̶i̶o̶n̶p̶s̶i̶4̶,
                pcmsolver, p̶s̶i̶4̶f̶o̶c̶k̶c̶i̶, p̶s̶i̶x̶a̶s̶, p̶y̶e̶i̶n̶s̶u̶m̶s̶, r̶e̶s̶p̶,
                s̶i̶m̶i̶n̶t̶, s̶n̶s̶m̶p̶2̶, v̶2̶r̶d̶m̶_̶c̶a̶s̶s̶c̶f̶

  ==> Input File <==

--------------------------------------------------------------------------
memory 3 GB
molecule mol {
0 1
O -1.72343757117871 -1.30912289640420 0.48350885506904
S -1.53520798447537 0.24396859566813 0.17220870576220
O -2.42759087689898 0.64613867515999 -0.87222349874441
O -1.41355995387079 0.89035679994222 1.43698336739227
O -0.06586719719852 0.24573951679433 -0.59351783116958
S 1.36137586836423 0.12591621564084 0.27091155864992
O 2.27548591975993 -0.13523732234947 -1.00931922742664
O 1.65008952088186 1.41502722885556 0.82289522614347
O 1.33946087252250 -1.08526596441223 1.02361616973193
H -1.98448218757930 -1.76592009825845 -0.34043220466797
H 2.52373358967314 0.72839924936329 -1.39463112074025
units angstrom
no_reorient
no_com
}
set basis def2-SVP
set scf_type df
set freeze_core true
set e_convergence 8
energy('b3lyp-d3bj')
--------------------------------------------------------------------------

  Memory set to   2.794 GiB by Python driver.

Scratch directory: /Users/hoyoun/Documents/Yonsei_AX_Camp/(진짜_이게_최종)/calibration/dft_work/_scratch/H2S2O7_3/
   => Libint2 <=

    Primary   basis highest AM E, G, H:  7, 6, 3
    Auxiliary basis highest AM E, G, H:  7, 7, 4
    Onebody   basis highest AM E, G, H:  -, -, -
    Solid Harmonics ordering:            Gaussian

*** tstart() called on choehoyun-ui-MacBookAir.local
*** at Mon Aug 10 18:29:28 2026

   => Loading Basis Set <=

    Name: DEF2-SVP
    Role: ORBITAL
    Keyword: BASIS
    atoms 1, 3-5, 7-9 entry O          line   130 file /Users/hoyoun/micromamba/envs/psi4env/share/psi4/basis/def2-svp.gbs 
    atoms 2, 6        entry S          line   328 file /Users/hoyoun/micromamba/envs/psi4env/share/psi4/basis/def2-svp.gbs 
    atoms 10-11       entry H          line    15 file /Users/hoyoun/micromamba/envs/psi4env/share/psi4/basis/def2-svp.gbs 

   => B3LYP-D3(BJ): Empirical Dispersion <=

    Grimme's -D3 (BJ-damping) Dispersion Correction
    Grimme S.; Ehrlich S.; Goerigk L. (2011), J. Comput. Chem., 32: 1456

        s6 =       1.000000
        s8 =       1.988900
        a1 =       0.398100
        a2 =       4.421100


         ---------------------------------------------------------
                                   SCF
               by Justin Turney, Rob Parrish, Andy Simmonett
                          and Daniel G. A. Smith
                              RKS Reference
                        8 Threads,   2861 MiB Core
         ---------------------------------------------------------

  ==> Geometry <==

    Molecular point group: c1
    Full point group: C1

    Geometry (in Angstrom), charge = 0, multiplicity = 1:

       Center              X                  Y                   Z               Mass       
    ------------   -----------------  -----------------  -----------------  -----------------
         O           -1.723437571179    -1.309122896404     0.483508855069    15.994914619570
         S           -1.535207984475     0.243968595668     0.172208705762    31.972071174400
         O           -2.427590876899     0.646138675160    -0.872223498744    15.994914619570
         O           -1.413559953871     0.890356799942     1.436983367392    15.994914619570
         O           -0.065867197199     0.245739516794    -0.593517831170    15.994914619570
         S            1.361375868364     0.125916215641     0.270911558650    31.972071174400
         O            2.275485919760    -0.135237322349    -1.009319227427    15.994914619570
         O            1.650089520882     1.415027228856     0.822895226143    15.994914619570
         O            1.339460872523    -1.085265964412     1.023616169732    15.994914619570
         H           -1.984482187579    -1.765920098258    -0.340432204668     1.007825032230
         H            2.523733589673     0.728399249363    -1.394631120740     1.007825032230

  Running in c1 symmetry.

  Rotational constants: A =      0.08075  B =      0.02936  C =      0.02895 [cm^-1]
  Rotational constants: A =   2420.84900  B =    880.12302  C =    867.79871 [MHz]
  Nuclear repulsion =  794.221275114175114

  Charge       = 0
  Multiplicity = 1
  Electrons    = 90
  Nalpha       = 45
  Nbeta        = 45

  ==> Algorithm <==

  SCF Algorithm Type is DF.
  DIIS enabled.
  MOM disabled.
  Fractional occupation disabled.
  Guess Type is SAD.
  Energy threshold   = 1.00e-08
  Density threshold  = 1.00e-06
  Integral threshold = 1.00e-12

  ==> Primary Basis <==

  Basis Set: DEF2-SVP
    Blend: DEF2-SVP
    Number of shells: 64
    Number of basis functions: 144
    Number of Cartesian functions: 153
    Spherical Harmonics?: true
    Max angular momentum: 2

  ==> DFT Potential <==

   => LibXC <=

    Version 7.1.2
    S. Lehtola, C. Steigemann, M. J. T. Oliveira, and M. A. L. Marques,  SoftwareX 7, 1–5 (2018) (10.1016/j.softx.2017.11.002)

   => Composite Functional: B3LYP-D3BJ2B <= 

    B3LYP-d3bj2b Hyb-GGA Exchange-Correlation Functional

    P. J. Stephens, F. J. Devlin, C. F. Chabalowski, and M. J. Frisch,  J. Phys. Chem. 98, 11623 (1994) (10.1021/j100096a001)

    Deriv               =              1
    GGA                 =           TRUE
    Meta                =          FALSE

    Exchange Hybrid     =           TRUE
    MP2 Hybrid          =          FALSE

   => Exchange Functionals <=

    0.0800   Slater exchange
    0.7200         Becke 88

   => Exact (HF) Exchange <=

    0.2000               HF 

   => Correlation Functionals <=

    0.1900   Vosko, Wilk & Nusair (VWN5_RPA)
    0.8100   Lee, Yang & Parr

   => LibXC Density Thresholds  <==

    XC_HYB_GGA_XC_B3LYP:  1.00E-15 

   => Molecular Quadrature <=

    Radial Scheme          =       TREUTLER
    Pruning Scheme         =           NONE
    Nuclear Scheme         =       TREUTLER

    Blocking Scheme        =         OCTREE
    BS radius alpha        =              1
    Pruning alpha          =              1
    Radial Points          =             75
    Spherical Points       =            302
    Total Points           =         231604
    Total Blocks           =           1764
    Max Points             =            256
    Max Functions          =            137
    Weights Tolerance      =       1.00E-15

   => Loading Basis Set <=

    Name: (DEF2-SVP AUX)
    Role: JKFIT
    Keyword: DF_BASIS_SCF
    atoms 1, 3-5, 7-9 entry O          line   318 file /Users/hoyoun/micromamba/envs/psi4env/share/psi4/basis/def2-universal-jkfit.gbs 
    atoms 2, 6        entry S          line   903 file /Users/hoyoun/micromamba/envs/psi4env/share/psi4/basis/def2-universal-jkfit.gbs 
    atoms 10-11       entry H          line    18 file /Users/hoyoun/micromamba/envs/psi4env/share/psi4/basis/def2-universal-jkfit.gbs 

  ==> Integral Setup <==

  DFHelper Memory: AOs need 0.125 GiB; user supplied 1.469 GiB. 
  SCF_SUBTYPE=INCORE selected. In-core MEM_DF algorithm will be used.
  Using in-core AOs.

  ==> MemDFJK: Density-Fitted J/K Matrices <==

    J tasked:                   Yes
    K tasked:                   Yes
    wK tasked:                   No
    OpenMP threads:               8
    Memory [MiB]:              1504
    Algorithm:                 Core
    Schwarz Cutoff:           1E-12
    Mask sparsity (%):      10.7253
    Fitting Condition:        1E-10

   => Auxiliary Basis Set <=

  Basis Set: (DEF2-SVP AUX)
    Blend: DEF2-UNIVERSAL-JKFIT
    Number of shells: 263
    Number of basis functions: 831
    Number of Cartesian functions: 1001
    Spherical Harmonics?: true
    Max angular momentum: 4

  Cached 100.0% of DFT collocation blocks in 0.627 [GiB].

  Minimum eigenvalue in the overlap matrix is 6.7404844504E-03.
  Reciprocal condition number of the overlap matrix is 1.5945019785E-03.
    Using symmetric orthogonalization.

  ==> Pre-Iterations <==

  SCF Guess: Superposition of Atomic Densities via on-the-fly atomic UHF (no occupation information).

   -------------------------
    Irrep   Nso     Nmo    
   -------------------------
     A        144     144 
   -------------------------
    Total     144     144
   -------------------------

  ==> Iterations <==

                           Total Energy        Delta E     RMS |[F,P]|

   @DF-RKS iter SAD: -1324.11225675188916   -1.32411e+03   0.00000e+00 
   @DF-RKS iter   1: -1322.58613751485382    1.52612e+00   1.00957e-02 DIIS/ADIIS
   @DF-RKS iter   2: -1320.77328516245279    1.81285e+00   1.83886e-02 DIIS/ADIIS
   @DF-RKS iter   3: -1323.28868608717880   -2.51540e+00   3.06504e-03 DIIS/ADIIS
   @DF-RKS iter   4: -1323.35178546350585   -6.30994e-02   1.23245e-03 DIIS/ADIIS
   @DF-RKS iter   5: -1323.36289805723800   -1.11126e-02   2.47713e-04 DIIS/ADIIS
   @DF-RKS iter   6: -1323.36329767402549   -3.99617e-04   1.22439e-04 DIIS/ADIIS
   @DF-RKS iter   7: -1323.36341472183699   -1.17048e-04   2.09492e-05 DIIS
   @DF-RKS iter   8: -1323.36341777158964   -3.04975e-06   8.00565e-06 DIIS
   @DF-RKS iter   9: -1323.36341824161400   -4.70024e-07   2.03356e-06 DIIS
   @DF-RKS iter  10: -1323.36341827271713   -3.11031e-08   5.10471e-07 DIIS
   @DF-RKS iter  11: -1323.36341827432716   -1.61003e-09   2.29555e-07 DIIS
  Energy and wave function converged.


  ==> Post-Iterations <==

   Electrons on quadrature grid:
      Ntotal   =   89.9999852981 ; deviation = -1.470e-05 

    Orbital Energies [Eh]
    ---------------------

    Doubly Occupied:                                                      

       1A    -89.161788     2A    -89.161480     3A    -19.234937  
       4A    -19.234791     5A    -19.232107     6A    -19.179046  
       7A    -19.177700     8A    -19.176424     9A    -19.176380  
      10A     -8.220733    11A     -8.220059    12A     -6.189987  
      13A     -6.189504    14A     -6.189280    15A     -6.188451  
      16A     -6.187379    17A     -6.186808    18A     -1.230791  
      19A     -1.201158    20A     -1.086651    21A     -1.081519  
      22A     -1.066490    23A     -1.061994    24A     -1.060899  
      25A     -0.756757    26A     -0.687749    27A     -0.651017  
      28A     -0.573616    29A     -0.551491    30A     -0.537290  
      31A     -0.528467    32A     -0.508780    33A     -0.481013  
      34A     -0.470692    35A     -0.447645    36A     -0.437718  
      37A     -0.412759    38A     -0.406958    39A     -0.398948  
      40A     -0.383279    41A     -0.374780    42A     -0.364053  
      43A     -0.361630    44A     -0.351238    45A     -0.346264  

    Virtual:                                                              

      46A     -0.028289    47A      0.008084    48A      0.016105  
      49A      0.027552    50A      0.061115    51A      0.064304  
      52A      0.075933    53A      0.083949    54A      0.153466  
      55A      0.166604    56A      0.308745    57A      0.385470  
      58A      0.489244    59A      0.493403    60A      0.521427  
      61A      0.543856    62A      0.559327    63A      0.575207  
      64A      0.598223    65A      0.606710    66A      0.620120  
      67A      0.639262    68A      0.657599    69A      0.742581  
      70A      0.789273    71A      0.799125    72A      0.806858  
      73A      0.813033    74A      0.820968    75A      0.834700  
      76A      0.861968    77A      0.880876    78A      0.903523  
      79A      0.912137    80A      0.973726    81A      0.975667  
      82A      0.986615    83A      0.995909    84A      0.999909  
      85A      1.020440    86A      1.033228    87A      1.042700  
      88A      1.072652    89A      1.107512    90A      1.140176  
      91A      1.152779    92A      1.183639    93A      1.192452  
      94A      1.201564    95A      1.220779    96A      1.240636  
      97A      1.281368    98A      1.313693    99A      1.365872  
     100A      1.397995   101A      1.404060   102A      1.437597  
     103A      1.455958   104A      1.544610   105A      1.687683  
     106A      1.711798   107A      1.820348   108A      2.109688  
     109A      2.113710   110A      2.493672   111A      2.507199  
     112A      2.525689   113A      2.560757   114A      2.568114  
     115A      2.570886   116A      2.571718   117A      2.574269  
     118A      2.575994   119A      2.582672   120A      2.587704  
     121A      2.632896   122A      2.649570   123A      2.663673  
     124A      2.722344   125A      2.753118   126A      2.768661  
     127A      2.791889   128A      2.823569   129A      2.852026  
     130A      2.871375   131A      2.894988   132A      2.903393  
     133A      2.945437   134A      2.952119   135A      3.001579  
     136A      3.003766   137A      3.064128   138A      3.079300  
     139A      3.324262   140A      3.341895   141A      3.399652  
     142A      3.411623   143A      3.604410   144A      3.608591  

    Final Occupation by Irrep:
              A 
    DOCC [    45 ]
    NA   [    45 ]
    NB   [    45 ]

  @DF-RKS Final Energy: -1323.36341827432716

   => Energetics <=

    Nuclear Repulsion Energy =            794.2212751141751141
    One-Electron Energy =               -3401.9607938003105119
    Two-Electron Energy =                1375.2434953110964670
    DFT Exchange-Correlation Energy =     -90.8457180831325246
    Empirical Dispersion Energy =          -0.0216768161556441
    VV10 Nonlocal Energy =                  0.0000000000000000
    Total Energy =                      -1323.3634182743271595

Computation Completed


Properties will be evaluated at   0.000000,   0.000000,   0.000000 [a0]

Properties computed using the SCF density matrix


 Multipole Moments:

 ------------------------------------------------------------------------------------
     Multipole            Electronic (a.u.)      Nuclear  (a.u.)        Total (a.u.)
 ------------------------------------------------------------------------------------

 L = 1.  Multiply by 2.5417464519 to convert [e a0] to [Debye]
 Dipole X            :         10.0953780           -9.7612230            0.3341550
 Dipole Y            :        -19.8132236           19.3162597           -0.4969639
 Dipole Z            :        -31.0019656           29.6505690           -1.3513966
 Magnitude           :                                                    1.4781425

 ------------------------------------------------------------------------------------

*** tstop() called on choehoyun-ui-MacBookAir.local at Mon Aug 10 18:29:32 2026
Module time:
	user time   =      16.33 seconds =       0.27 minutes
	system time =       0.58 seconds =       0.01 minutes
	total time  =          4 seconds =       0.07 minutes
Total time:
	user time   =      16.33 seconds =       0.27 minutes
	system time =       0.58 seconds =       0.01 minutes
	total time  =          4 seconds =       0.07 minutes

    Psi4 stopped on: Monday, 10 August 2026 06:29PM
    Psi4 wall time for execution: 0:00:03.75

*** Psi4 exiting successfully. Buy a developer a beer!
