
    -----------------------------------------------------------------------
          Psi4: An Open-Source Ab Initio Electronic Structure Package
                               Psi4 1.11 release

                         Git: Rev {} zzzzzzz 


    D. G. A. Smith, L. A. Burns, A. C. Simmonett, R. M. Parrish,
    M. C. Schieber, R. Galvelis, P. Kraus, H. Kruse, R. Di Remigio,
    A. Alenaizan, A. M. James, S. Lehtola, J. P. Misiewicz, M. Scheurer,
    R. A. Shaw, J. B. Schriber, Y. Xie, Z. L. Glick, D. A. Sirianni,
    J. S. O'Brien, J. M. Waldrop, A. Kumar, E. G. Hohenstein,
    B. P. Pritchard, B. R. Brooks, H. F. Schaefer III, A. Yu. Sokolov,
    K. Patkowski, A. E. DePrince III, U. Bozkaya, R. A. King,
    F. A. Evangelista, J. M. Turney, T. D. Crawford, C. D. Sherrill,
    J. Chem. Phys. 152(18) 184108 (2020). https://doi.org/10.1063/5.0006002

                            Additional Code Authors
    E. T. Seidl, C. L. Janssen, E. F. Valeev, M. L. Leininger,
    J. F. Gonthier, R. M. Richard, H. R. McAlexander, M. Saitow, X. Wang,
    P. Verma, M. H. Lechner, A. Jiang, S. Behnle, A. G. Heide,
    M. F. Herbst, D. L. Poole, T. Győri, E. C. Mitchell, J. P. Pederson,
    and A. M. Wallace

             Previous Authors, Complete List of Code Contributors,
                       and Citations for Specific Modules
    https://github.com/psi4/psi4/blob/master/codemeta.json
    https://github.com/psi4/psi4/graphs/contributors
    https://psicode.org/psi4manual/master/introduction.html#citing-psifour

    -----------------------------------------------------------------------


    Psi4 started on: Monday, 10 August 2026 06:18PM

    Process ID: 74231
    Host:       choehoyun-ui-MacBookAir.local
    PSIDATADIR: /Users/hoyoun/micromamba/envs/psi4env/share/psi4
    Memory:     500.0 MiB
    Threads:    8
    Addons:     a̶d̶c̶c̶, a̶m̶b̶i̶t̶, b̶s̶e̶, c̶c̶t̶3̶, c̶f̶o̶u̶r̶, c̶h̶e̶m̶p̶s̶2̶, c̶p̶p̶e̶, d̶d̶x̶, dftd3,
                d̶f̶t̶d̶4̶, dkh, ecpint, einsums, f̶o̶r̶t̶e̶, gauxc, g̶c̶p̶, g̶d̶m̶a̶,
                g̶e̶o̶m̶e̶t̶r̶i̶c̶, g̶p̶u̶_̶d̶f̶c̶c̶, i̶n̶t̶e̶g̶r̶a̶t̶o̶r̶x̶x̶, i̶p̶i̶,
                l̶i̶b̶e̶f̶p̶, m̶d̶i̶, m̶p̶2̶d̶, m̶r̶c̶c̶, ooo, o̶p̶e̶n̶f̶e̶r̶m̶i̶o̶n̶p̶s̶i̶4̶,
                pcmsolver, p̶s̶i̶4̶f̶o̶c̶k̶c̶i̶, p̶s̶i̶x̶a̶s̶, p̶y̶e̶i̶n̶s̶u̶m̶s̶, r̶e̶s̶p̶,
                s̶i̶m̶i̶n̶t̶, s̶n̶s̶m̶p̶2̶, v̶2̶r̶d̶m̶_̶c̶a̶s̶s̶c̶f̶

  ==> Input File <==

--------------------------------------------------------------------------
memory 3 GB
molecule mol {
0 1
O 3.64237839630535 0.00772972976777 0.51900000255440
C 2.59137839113257 -0.55327027299334 0.32000000157497
O 1.48137838566939 -0.34027027194500 1.05800000520724
H 1.73137838689984 0.36472973152485 1.67800000825875
C 2.39037839014329 -1.56327027796433 -0.79400000390789
H 3.09137839359345 -2.37427028195590 -0.60300000296783
H 2.68737839160506 -1.07727027557235 -1.72100000847038
N 1.06537838362194 -2.09827028059749 -0.91800000451819
H 0.35137838010778 -1.57527027802340 -1.41200000694955
C 0.63937838152526 -3.02827028517474 -0.01800000008859
O 1.38337838518706 -3.61127028804414 0.75700000372579
C -0.86762162589186 -3.24327028623292 -0.03800000018702
H -1.09862162702879 -4.08027029035245 0.61200000301213
H -1.21062162758003 -3.45327028726650 -1.05100000517279
N -1.55562162927804 -2.05927028040554 0.43400000213605
H -1.68462162991296 -1.88527027954915 1.42200000699876
C -1.82462163060200 -1.02127027529674 -0.37700000185551
O -1.57962162939616 -1.01927027528689 -1.58700000781086
C -2.50962163397342 0.15572973049620 0.31600000155528
N -2.18862163239353 0.13972973041745 1.74100000856881
H -1.25662162780643 0.51872973228280 1.87500000922833
H -2.82562163552870 0.73972973337052 2.25000001107400
H -3.58262163925449 -0.03927027046355 0.22600000111233
C -2.21362163251657 1.46872973695849 -0.42700000210160
H -2.50562163395373 1.34072973632850 -1.46900000723009
H -2.84962163564682 2.24372974077287 0.00700000003445
C -0.77562162543906 1.89472973905517 -0.34600000170293
C -0.30562162312582 2.61872974261854 0.75700000372579
H -0.99862162653662 2.91172974406062 1.53600000755985
C 1.03237838345952 3.00872974453803 0.84400000415398
H 1.37237838513292 3.57772974733852 1.70000000836702
C 1.92037838783006 2.68872974296306 -0.18000000088592
H 2.95737839293393 2.98472974441991 -0.11600000057092
C 1.45937838556111 1.98472973949813 -1.29200000635893
H 2.13937838890792 1.75172973835135 -2.10100001034065
C 0.12737837900531 1.58372973752449 -1.37000000674283
H -0.23062162275669 1.03772973483721 -2.23200001098541
units angstrom
no_reorient
no_com
}
set basis def2-SVP
set scf_type df
set freeze_core true
set e_convergence 8
energy('b3lyp-d3bj')
--------------------------------------------------------------------------

  Memory set to   2.794 GiB by Python driver.

Scratch directory: /Users/hoyoun/Documents/Yonsei_AX_Camp/(진짜_이게_최종)/calibration/dft_work/_scratch/412/
   => Libint2 <=

    Primary   basis highest AM E, G, H:  7, 6, 3
    Auxiliary basis highest AM E, G, H:  7, 7, 4
    Onebody   basis highest AM E, G, H:  -, -, -
    Solid Harmonics ordering:            Gaussian

*** tstart() called on choehoyun-ui-MacBookAir.local
*** at Mon Aug 10 18:18:03 2026

   => Loading Basis Set <=

    Name: DEF2-SVP
    Role: ORBITAL
    Keyword: BASIS
    atoms 1, 3, 11, 18                                           entry O          line   130 file /Users/hoyoun/micromamba/envs/psi4env/share/psi4/basis/def2-svp.gbs 
    atoms 2, 5, 10, 12, 17, 19, 24, 27-28, 30, 32, 34, 36        entry C          line    90 file /Users/hoyoun/micromamba/envs/psi4env/share/psi4/basis/def2-svp.gbs 
    atoms 4, 6-7, 9, 13-14, 16, 21-23, 25-26, 29, 31, 33, 35, 37 entry H          line    15 file /Users/hoyoun/micromamba/envs/psi4env/share/psi4/basis/def2-svp.gbs 
    atoms 8, 15, 20                                              entry N          line   110 file /Users/hoyoun/micromamba/envs/psi4env/share/psi4/basis/def2-svp.gbs 

   => B3LYP-D3(BJ): Empirical Dispersion <=

    Grimme's -D3 (BJ-damping) Dispersion Correction
    Grimme S.; Ehrlich S.; Goerigk L. (2011), J. Comput. Chem., 32: 1456

        s6 =       1.000000
        s8 =       1.988900
        a1 =       0.398100
        a2 =       4.421100


         ---------------------------------------------------------
                                   SCF
               by Justin Turney, Rob Parrish, Andy Simmonett
                          and Daniel G. A. Smith
                              RKS Reference
                        8 Threads,   2861 MiB Core
         ---------------------------------------------------------

  ==> Geometry <==

    Molecular point group: c1
    Full point group: C1

    Geometry (in Angstrom), charge = 0, multiplicity = 1:

       Center              X                  Y                   Z               Mass       
    ------------   -----------------  -----------------  -----------------  -----------------
         O            3.642378396305     0.007729729768     0.519000002554    15.994914619570
         C            2.591378391133    -0.553270272993     0.320000001575    12.000000000000
         O            1.481378385669    -0.340270271945     1.058000005207    15.994914619570
         H            1.731378386900     0.364729731525     1.678000008259     1.007825032230
         C            2.390378390143    -1.563270277964    -0.794000003908    12.000000000000
         H            3.091378393593    -2.374270281956    -0.603000002968     1.007825032230
         H            2.687378391605    -1.077270275572    -1.721000008470     1.007825032230
         N            1.065378383622    -2.098270280597    -0.918000004518    14.003074004430
         H            0.351378380108    -1.575270278023    -1.412000006950     1.007825032230
         C            0.639378381525    -3.028270285175    -0.018000000089    12.000000000000
         O            1.383378385187    -3.611270288044     0.757000003726    15.994914619570
         C           -0.867621625892    -3.243270286233    -0.038000000187    12.000000000000
         H           -1.098621627029    -4.080270290352     0.612000003012     1.007825032230
         H           -1.210621627580    -3.453270287267    -1.051000005173     1.007825032230
         N           -1.555621629278    -2.059270280406     0.434000002136    14.003074004430
         H           -1.684621629913    -1.885270279549     1.422000006999     1.007825032230
         C           -1.824621630602    -1.021270275297    -0.377000001856    12.000000000000
         O           -1.579621629396    -1.019270275287    -1.587000007811    15.994914619570
         C           -2.509621633973     0.155729730496     0.316000001555    12.000000000000
         N           -2.188621632394     0.139729730417     1.741000008569    14.003074004430
         H           -1.256621627806     0.518729732283     1.875000009228     1.007825032230
         H           -2.825621635529     0.739729733371     2.250000011074     1.007825032230
         H           -3.582621639254    -0.039270270464     0.226000001112     1.007825032230
         C           -2.213621632517     1.468729736958    -0.427000002102    12.000000000000
         H           -2.505621633954     1.340729736329    -1.469000007230     1.007825032230
         H           -2.849621635647     2.243729740773     0.007000000034     1.007825032230
         C           -0.775621625439     1.894729739055    -0.346000001703    12.000000000000
         C           -0.305621623126     2.618729742619     0.757000003726    12.000000000000
         H           -0.998621626537     2.911729744061     1.536000007560     1.007825032230
         C            1.032378383460     3.008729744538     0.844000004154    12.000000000000
         H            1.372378385133     3.577729747339     1.700000008367     1.007825032230
         C            1.920378387830     2.688729742963    -0.180000000886    12.000000000000
         H            2.957378392934     2.984729744420    -0.116000000571     1.007825032230
         C            1.459378385561     1.984729739498    -1.292000006359    12.000000000000
         H            2.139378388908     1.751729738351    -2.101000010341     1.007825032230
         C            0.127378379005     1.583729737524    -1.370000006743    12.000000000000
         H           -0.230621622757     1.037729734837    -2.232000010985     1.007825032230

  Running in c1 symmetry.

  Rotational constants: A =      0.01427  B =      0.01222  C =      0.00810 [cm^-1]
  Rotational constants: A =    427.86943  B =    366.46886  C =    242.86027 [MHz]
  Nuclear repulsion = 1697.113676306865273

  Charge       = 0
  Multiplicity = 1
  Electrons    = 148
  Nalpha       = 74
  Nbeta        = 74

  ==> Algorithm <==

  SCF Algorithm Type is DF.
  DIIS enabled.
  MOM disabled.
  Fractional occupation disabled.
  Guess Type is SAD.
  Energy threshold   = 1.00e-08
  Density threshold  = 1.00e-06
  Integral threshold = 1.00e-12

  ==> Primary Basis <==

  Basis Set: DEF2-SVP
    Blend: DEF2-SVP
    Number of shells: 171
    Number of basis functions: 365
    Number of Cartesian functions: 385
    Spherical Harmonics?: true
    Max angular momentum: 2

  ==> DFT Potential <==

   => LibXC <=

    Version 7.1.2
    S. Lehtola, C. Steigemann, M. J. T. Oliveira, and M. A. L. Marques,  SoftwareX 7, 1–5 (2018) (10.1016/j.softx.2017.11.002)

   => Composite Functional: B3LYP-D3BJ2B <= 

    B3LYP-d3bj2b Hyb-GGA Exchange-Correlation Functional

    P. J. Stephens, F. J. Devlin, C. F. Chabalowski, and M. J. Frisch,  J. Phys. Chem. 98, 11623 (1994) (10.1021/j100096a001)

    Deriv               =              1
    GGA                 =           TRUE
    Meta                =          FALSE

    Exchange Hybrid     =           TRUE
    MP2 Hybrid          =          FALSE

   => Exchange Functionals <=

    0.0800   Slater exchange
    0.7200         Becke 88

   => Exact (HF) Exchange <=

    0.2000               HF 

   => Correlation Functionals <=

    0.1900   Vosko, Wilk & Nusair (VWN5_RPA)
    0.8100   Lee, Yang & Parr

   => LibXC Density Thresholds  <==

    XC_HYB_GGA_XC_B3LYP:  1.00E-15 

   => Molecular Quadrature <=

    Radial Scheme          =       TREUTLER
    Pruning Scheme         =           NONE
    Nuclear Scheme         =       TREUTLER

    Blocking Scheme        =         OCTREE
    BS radius alpha        =              1
    Pruning alpha          =              1
    Radial Points          =             75
    Spherical Points       =            302
    Total Points           =         752971
    Total Blocks           =           5333
    Max Points             =            256
    Max Functions          =            313
    Weights Tolerance      =       1.00E-15

   => Loading Basis Set <=

    Name: (DEF2-SVP AUX)
    Role: JKFIT
    Keyword: DF_BASIS_SCF
    atoms 1, 3, 11, 18                                           entry O          line   318 file /Users/hoyoun/micromamba/envs/psi4env/share/psi4/basis/def2-universal-jkfit.gbs 
    atoms 2, 5, 10, 12, 17, 19, 24, 27-28, 30, 32, 34, 36        entry C          line   198 file /Users/hoyoun/micromamba/envs/psi4env/share/psi4/basis/def2-universal-jkfit.gbs 
    atoms 4, 6-7, 9, 13-14, 16, 21-23, 25-26, 29, 31, 33, 35, 37 entry H          line    18 file /Users/hoyoun/micromamba/envs/psi4env/share/psi4/basis/def2-universal-jkfit.gbs 
    atoms 8, 15, 20                                              entry N          line   258 file /Users/hoyoun/micromamba/envs/psi4env/share/psi4/basis/def2-universal-jkfit.gbs 

  ==> Integral Setup <==

  DFHelper Memory: AOs need 1.537 GiB; user supplied 1.537 GiB. 
  SCF_SUBTYPE=INCORE selected. In-core MEM_DF algorithm will be used.
  Using in-core AOs.

  ==> MemDFJK: Density-Fitted J/K Matrices <==

    J tasked:                   Yes
    K tasked:                   Yes
    wK tasked:                   No
    OpenMP threads:               8
    Memory [MiB]:              1573
    Algorithm:                 Core
    Schwarz Cutoff:           1E-12
    Mask sparsity (%):      18.2353
    Fitting Condition:        1E-10

   => Auxiliary Basis Set <=

  Basis Set: (DEF2-SVP AUX)
    Blend: DEF2-UNIVERSAL-JKFIT
    Number of shells: 602
    Number of basis functions: 1820
    Number of Cartesian functions: 2148
    Spherical Harmonics?: true
    Max angular momentum: 4

  Cached 12.5% of DFT collocation blocks in 0.508 [GiB].

  Minimum eigenvalue in the overlap matrix is 2.6251653969E-04.
  Reciprocal condition number of the overlap matrix is 3.8083175805E-05.
    Using symmetric orthogonalization.

  ==> Pre-Iterations <==

  SCF Guess: Superposition of Atomic Densities via on-the-fly atomic UHF (no occupation information).

   -------------------------
    Irrep   Nso     Nmo    
   -------------------------
     A        365     365 
   -------------------------
    Total     365     365
   -------------------------

  ==> Iterations <==

                           Total Energy        Delta E     RMS |[F,P]|

   @DF-RKS iter SAD:  -969.45499693678858   -9.69455e+02   0.00000e+00 
   @DF-RKS iter   1:  -969.09401092492931    3.60986e-01   4.16573e-03 DIIS/ADIIS
   @DF-RKS iter   2:  -968.57461854716360    5.19392e-01   5.24438e-03 DIIS/ADIIS
   @DF-RKS iter   3:  -970.14803358261463   -1.57342e+00   1.01216e-03 DIIS/ADIIS
   @DF-RKS iter   4:  -970.19698118867279   -4.89476e-02   3.88289e-04 DIIS/ADIIS
   @DF-RKS iter   5:  -970.20431471187135   -7.33352e-03   1.19576e-04 DIIS/ADIIS
   @DF-RKS iter   6:  -970.20507292391574   -7.58212e-04   3.37690e-05 DIIS
   @DF-RKS iter   7:  -970.20513117564474   -5.82517e-05   1.13695e-05 DIIS
   @DF-RKS iter   8:  -970.20513906018914   -7.88454e-06   4.11083e-06 DIIS
   @DF-RKS iter   9:  -970.20514008136183   -1.02117e-06   1.18819e-06 DIIS
   @DF-RKS iter  10:  -970.20514014610592   -6.47441e-08   5.16646e-07 DIIS
   @DF-RKS iter  11:  -970.20514015995764   -1.38517e-08   1.31790e-07 DIIS
   @DF-RKS iter  12:  -970.20514016088862   -9.30982e-10   4.80119e-08 DIIS
  Energy and wave function converged.


  ==> Post-Iterations <==

   Electrons on quadrature grid:
      Ntotal   =  147.9999541865 ; deviation = -4.581e-05 

    Orbital Energies [Eh]
    ---------------------

    Doubly Occupied:                                                      

       1A    -19.185941     2A    -19.123284     3A    -19.113073  
       4A    -19.097994     5A    -14.361284     6A    -14.344591  
       7A    -14.335988     8A    -10.317468     9A    -10.292299  
      10A    -10.279690    11A    -10.238616    12A    -10.232222  
      13A    -10.229221    14A    -10.204064    15A    -10.200892  
      16A    -10.200446    17A    -10.198339    18A    -10.197194  
      19A    -10.196480    20A    -10.193748    21A     -1.099479  
      22A     -1.039585    23A     -1.022414    24A     -1.006200  
      25A     -0.933505    26A     -0.916323    27A     -0.903615  
      28A     -0.860887    29A     -0.784998    30A     -0.763226  
      31A     -0.749329    32A     -0.731403    33A     -0.712267  
      34A     -0.651991    35A     -0.622863    36A     -0.613414  
      37A     -0.596513    38A     -0.583077    39A     -0.579643  
      40A     -0.555014    41A     -0.535685    42A     -0.518011  
      43A     -0.510427    44A     -0.496056    45A     -0.486513  
      46A     -0.483585    47A     -0.471562    48A     -0.468184  
      49A     -0.466188    50A     -0.457083    51A     -0.443749  
      52A     -0.435146    53A     -0.434166    54A     -0.424406  
      55A     -0.418586    56A     -0.407276    57A     -0.404809  
      58A     -0.402086    59A     -0.392408    60A     -0.385082  
      61A     -0.381276    62A     -0.376761    63A     -0.367240  
      64A     -0.351002    65A     -0.348143    66A     -0.323074  
      67A     -0.295482    68A     -0.288308    69A     -0.284472  
      70A     -0.269461    71A     -0.265166    72A     -0.255863  
      73A     -0.250653    74A     -0.244538  

    Virtual:                                                              

      75A     -0.025065    76A     -0.021850    77A     -0.003022  
      78A      0.006551    79A      0.020271    80A      0.037552  
      81A      0.056493    82A      0.064128    83A      0.070216  
      84A      0.086481    85A      0.092529    86A      0.103275  
      87A      0.109412    88A      0.113128    89A      0.123169  
      90A      0.126402    91A      0.133627    92A      0.143542  
      93A      0.145702    94A      0.154882    95A      0.156149  
      96A      0.159791    97A      0.178319    98A      0.191792  
      99A      0.204557   100A      0.213610   101A      0.222841  
     102A      0.227457   103A      0.237671   104A      0.251887  
     105A      0.261296   106A      0.278213   107A      0.284932  
     108A      0.291332   109A      0.301220   110A      0.307273  
     111A      0.317551   112A      0.321165   113A      0.352060  
     114A      0.361243   115A      0.373018   116A      0.385540  
     117A      0.398060   118A      0.402093   119A      0.412522  
     120A      0.420144   121A      0.428137   122A      0.443408  
     123A      0.455412   124A      0.459504   125A      0.461611  
     126A      0.470485   127A      0.472884   128A      0.482171  
     129A      0.489509   130A      0.496618   131A      0.500775  
     132A      0.515955   133A      0.518026   134A      0.529487  
     135A      0.546570   136A      0.553302   137A      0.563663  
     138A      0.572516   139A      0.582495   140A      0.584463  
     141A      0.599349   142A      0.606539   143A      0.619835  
     144A      0.626810   145A      0.631408   146A      0.632004  
     147A      0.638054   148A      0.640737   149A      0.644058  
     150A      0.652860   151A      0.654651   152A      0.657089  
     153A      0.662871   154A      0.665008   155A      0.668733  
     156A      0.675874   157A      0.681126   158A      0.683185  
     159A      0.687659   160A      0.697598   161A      0.707906  
     162A      0.714535   163A      0.721911   164A      0.733261  
     165A      0.740018   166A      0.742475   167A      0.755473  
     168A      0.767273   169A      0.769449   170A      0.786190  
     171A      0.790951   172A      0.800360   173A      0.828351  
     174A      0.830074   175A      0.842589   176A      0.872246  
     177A      0.886709   178A      0.892135   179A      0.903821  
     180A      0.905249   181A      0.912810   182A      0.922318  
     183A      0.931026   184A      0.939333   185A      0.961879  
     186A      0.982646   187A      1.005676   188A      1.022188  
     189A      1.036276   190A      1.044167   191A      1.061635  
     192A      1.074191   193A      1.092790   194A      1.108246  
     195A      1.114315   196A      1.138826   197A      1.147786  
     198A      1.155240   199A      1.160747   200A      1.179209  
     201A      1.199015   202A      1.210095   203A      1.217598  
     204A      1.224897   205A      1.235200   206A      1.244155  
     207A      1.249672   208A      1.275941   209A      1.279192  
     210A      1.288473   211A      1.301980   212A      1.304885  
     213A      1.311901   214A      1.321247   215A      1.353082  
     216A      1.360768   217A      1.399551   218A      1.399822  
     219A      1.410590   220A      1.415678   221A      1.447343  
     222A      1.482572   223A      1.495760   224A      1.503242  
     225A      1.509316   226A      1.515219   227A      1.538811  
     228A      1.591789   229A      1.602158   230A      1.616136  
     231A      1.628728   232A      1.643080   233A      1.651023  
     234A      1.661322   235A      1.666312   236A      1.692256  
     237A      1.699669   238A      1.709300   239A      1.727690  
     240A      1.737167   241A      1.743201   242A      1.746278  
     243A      1.756970   244A      1.759166   245A      1.764754  
     246A      1.773757   247A      1.779605   248A      1.784242  
     249A      1.787630   250A      1.798341   251A      1.806780  
     252A      1.816900   253A      1.828381   254A      1.829266  
     255A      1.836920   256A      1.854728   257A      1.861151  
     258A      1.881145   259A      1.888463   260A      1.898615  
     261A      1.910550   262A      1.916721   263A      1.920359  
     264A      1.938150   265A      1.946426   266A      1.951055  
     267A      1.959906   268A      1.962894   269A      1.973669  
     270A      1.978699   271A      1.997157   272A      2.007585  
     273A      2.012898   274A      2.026017   275A      2.030686  
     276A      2.053597   277A      2.076747   278A      2.088243  
     279A      2.096278   280A      2.100809   281A      2.107612  
     282A      2.118227   283A      2.126555   284A      2.143479  
     285A      2.167897   286A      2.185746   287A      2.192025  
     288A      2.199330   289A      2.211554   290A      2.223144  
     291A      2.239800   292A      2.266792   293A      2.295377  
     294A      2.302894   295A      2.312215   296A      2.325618  
     297A      2.333667   298A      2.338383   299A      2.350310  
     300A      2.354734   301A      2.356691   302A      2.386369  
     303A      2.393496   304A      2.426464   305A      2.447703  
     306A      2.454168   307A      2.468249   308A      2.504403  
     309A      2.522151   310A      2.568249   311A      2.574979  
     312A      2.578527   313A      2.623078   314A      2.635245  
     315A      2.640764   316A      2.645636   317A      2.655939  
     318A      2.680336   319A      2.691680   320A      2.696745  
     321A      2.713879   322A      2.730285   323A      2.745797  
     324A      2.747140   325A      2.754096   326A      2.764777  
     327A      2.798007   328A      2.812352   329A      2.828687  
     330A      2.832361   331A      2.852623   332A      2.876548  
     333A      2.882346   334A      2.898834   335A      2.909589  
     336A      2.913553   337A      2.930390   338A      2.942000  
     339A      2.953289   340A      2.992149   341A      3.001359  
     342A      3.021532   343A      3.042422   344A      3.087967  
     345A      3.095661   346A      3.132852   347A      3.147262  
     348A      3.163779   349A      3.177352   350A      3.195849  
     351A      3.201239   352A      3.214244   353A      3.249516  
     354A      3.256072   355A      3.291380   356A      3.302584  
     357A      3.419322   358A      3.491940   359A      3.542463  
     360A      3.554062   361A      3.634929   362A      3.656690  
     363A      3.668795   364A      3.670571   365A      3.787599  

    Final Occupation by Irrep:
              A 
    DOCC [    74 ]
    NA   [    74 ]
    NB   [    74 ]

  @DF-RKS Final Energy:  -970.20514016088862

   => Energetics <=

    Nuclear Repulsion Energy =           1697.1136763068652726
    One-Electron Energy =               -4694.4822905708660983
    Two-Electron Energy =                2134.1014283402455476
    DFT Exchange-Correlation Energy =    -106.8538695524198090
    Empirical Dispersion Energy =          -0.0840846847132629
    VV10 Nonlocal Energy =                  0.0000000000000000
    Total Energy =                       -970.2051401608883907

Computation Completed


Properties will be evaluated at   0.000000,   0.000000,   0.000000 [a0]

Properties computed using the SCF density matrix


 Multipole Moments:

 ------------------------------------------------------------------------------------
     Multipole            Electronic (a.u.)      Nuclear  (a.u.)        Total (a.u.)
 ------------------------------------------------------------------------------------

 L = 1.  Multiply by 2.5417464519 to convert [e a0] to [Debye]
 Dipole X            :        -52.0238516           50.5293871           -1.4944645
 Dipole Y            :         55.7244465          -54.5677319            1.1567146
 Dipole Z            :          0.9041395           -0.4799904            0.4241491
 Magnitude           :                                                    1.9368313

 ------------------------------------------------------------------------------------

*** tstop() called on choehoyun-ui-MacBookAir.local at Mon Aug 10 18:18:46 2026
Module time:
	user time   =     260.43 seconds =       4.34 minutes
	system time =       5.58 seconds =       0.09 minutes
	total time  =         43 seconds =       0.72 minutes
Total time:
	user time   =     260.43 seconds =       4.34 minutes
	system time =       5.58 seconds =       0.09 minutes
	total time  =         43 seconds =       0.72 minutes

    Psi4 stopped on: Monday, 10 August 2026 06:18PM
    Psi4 wall time for execution: 0:00:43.01

*** Psi4 exiting successfully. Buy a developer a beer!
