
    -----------------------------------------------------------------------
          Psi4: An Open-Source Ab Initio Electronic Structure Package
                               Psi4 1.11 release

                         Git: Rev {} zzzzzzz 


    D. G. A. Smith, L. A. Burns, A. C. Simmonett, R. M. Parrish,
    M. C. Schieber, R. Galvelis, P. Kraus, H. Kruse, R. Di Remigio,
    A. Alenaizan, A. M. James, S. Lehtola, J. P. Misiewicz, M. Scheurer,
    R. A. Shaw, J. B. Schriber, Y. Xie, Z. L. Glick, D. A. Sirianni,
    J. S. O'Brien, J. M. Waldrop, A. Kumar, E. G. Hohenstein,
    B. P. Pritchard, B. R. Brooks, H. F. Schaefer III, A. Yu. Sokolov,
    K. Patkowski, A. E. DePrince III, U. Bozkaya, R. A. King,
    F. A. Evangelista, J. M. Turney, T. D. Crawford, C. D. Sherrill,
    J. Chem. Phys. 152(18) 184108 (2020). https://doi.org/10.1063/5.0006002

                            Additional Code Authors
    E. T. Seidl, C. L. Janssen, E. F. Valeev, M. L. Leininger,
    J. F. Gonthier, R. M. Richard, H. R. McAlexander, M. Saitow, X. Wang,
    P. Verma, M. H. Lechner, A. Jiang, S. Behnle, A. G. Heide,
    M. F. Herbst, D. L. Poole, T. Győri, E. C. Mitchell, J. P. Pederson,
    and A. M. Wallace

             Previous Authors, Complete List of Code Contributors,
                       and Citations for Specific Modules
    https://github.com/psi4/psi4/blob/master/codemeta.json
    https://github.com/psi4/psi4/graphs/contributors
    https://psicode.org/psi4manual/master/introduction.html#citing-psifour

    -----------------------------------------------------------------------


    Psi4 started on: Monday, 10 August 2026 06:36PM

    Process ID: 75721
    Host:       choehoyun-ui-MacBookAir.local
    PSIDATADIR: /Users/hoyoun/micromamba/envs/psi4env/share/psi4
    Memory:     500.0 MiB
    Threads:    8
    Addons:     a̶d̶c̶c̶, a̶m̶b̶i̶t̶, b̶s̶e̶, c̶c̶t̶3̶, c̶f̶o̶u̶r̶, c̶h̶e̶m̶p̶s̶2̶, c̶p̶p̶e̶, d̶d̶x̶, dftd3,
                d̶f̶t̶d̶4̶, dkh, ecpint, einsums, f̶o̶r̶t̶e̶, gauxc, g̶c̶p̶, g̶d̶m̶a̶,
                g̶e̶o̶m̶e̶t̶r̶i̶c̶, g̶p̶u̶_̶d̶f̶c̶c̶, i̶n̶t̶e̶g̶r̶a̶t̶o̶r̶x̶x̶, i̶p̶i̶,
                l̶i̶b̶e̶f̶p̶, m̶d̶i̶, m̶p̶2̶d̶, m̶r̶c̶c̶, ooo, o̶p̶e̶n̶f̶e̶r̶m̶i̶o̶n̶p̶s̶i̶4̶,
                pcmsolver, p̶s̶i̶4̶f̶o̶c̶k̶c̶i̶, p̶s̶i̶x̶a̶s̶, p̶y̶e̶i̶n̶s̶u̶m̶s̶, r̶e̶s̶p̶,
                s̶i̶m̶i̶n̶t̶, s̶n̶s̶m̶p̶2̶, v̶2̶r̶d̶m̶_̶c̶a̶s̶s̶c̶f̶

  ==> Input File <==

--------------------------------------------------------------------------
memory 3 GB
molecule mol {
0 1
O -0.19406076377051 0.79739273641193 -1.24754489601958
C 0.26247187165177 -0.38598230829161 -0.58046429069620
C -0.32117133065613 -0.35455087335457 0.81734976336935
O 0.13359163834237 0.76868703795148 1.55861147997763
H 0.31228523947947 0.92263345567703 -2.05616499287712
H -0.04828893261538 1.54811306582359 1.01818574137843
H -0.07634356115154 -1.28870353517575 -1.10504151358637
H 1.35679587878537 -0.39913550800419 -0.52010439487944
H -0.00816618457153 -1.24448358050056 1.36656177522182
H -1.41711385549389 -0.36397049053735 0.74861132811149
units angstrom
no_reorient
no_com
}
set basis def2-SVP
set scf_type df
set freeze_core true
set e_convergence 8
energy('b3lyp-d3bj')
--------------------------------------------------------------------------

  Memory set to   2.794 GiB by Python driver.

Scratch directory: /Users/hoyoun/Documents/Yonsei_AX_Camp/(진짜_이게_최종)/calibration/dft_work/_scratch/E27/
   => Libint2 <=

    Primary   basis highest AM E, G, H:  7, 6, 3
    Auxiliary basis highest AM E, G, H:  7, 7, 4
    Onebody   basis highest AM E, G, H:  -, -, -
    Solid Harmonics ordering:            Gaussian

*** tstart() called on choehoyun-ui-MacBookAir.local
*** at Mon Aug 10 18:36:16 2026

   => Loading Basis Set <=

    Name: DEF2-SVP
    Role: ORBITAL
    Keyword: BASIS
    atoms 1, 4 entry O          line   130 file /Users/hoyoun/micromamba/envs/psi4env/share/psi4/basis/def2-svp.gbs 
    atoms 2-3  entry C          line    90 file /Users/hoyoun/micromamba/envs/psi4env/share/psi4/basis/def2-svp.gbs 
    atoms 5-10 entry H          line    15 file /Users/hoyoun/micromamba/envs/psi4env/share/psi4/basis/def2-svp.gbs 

   => B3LYP-D3(BJ): Empirical Dispersion <=

    Grimme's -D3 (BJ-damping) Dispersion Correction
    Grimme S.; Ehrlich S.; Goerigk L. (2011), J. Comput. Chem., 32: 1456

        s6 =       1.000000
        s8 =       1.988900
        a1 =       0.398100
        a2 =       4.421100


         ---------------------------------------------------------
                                   SCF
               by Justin Turney, Rob Parrish, Andy Simmonett
                          and Daniel G. A. Smith
                              RKS Reference
                        8 Threads,   2861 MiB Core
         ---------------------------------------------------------

  ==> Geometry <==

    Molecular point group: c1
    Full point group: C1

    Geometry (in Angstrom), charge = 0, multiplicity = 1:

       Center              X                  Y                   Z               Mass       
    ------------   -----------------  -----------------  -----------------  -----------------
         O           -0.194060763771     0.797392736412    -1.247544896020    15.994914619570
         C            0.262471871652    -0.385982308292    -0.580464290696    12.000000000000
         C           -0.321171330656    -0.354550873355     0.817349763369    12.000000000000
         O            0.133591638342     0.768687037951     1.558611479978    15.994914619570
         H            0.312285239479     0.922633455677    -2.056164992877     1.007825032230
         H           -0.048288932615     1.548113065824     1.018185741378     1.007825032230
         H           -0.076343561152    -1.288703535176    -1.105041513586     1.007825032230
         H            1.356795878785    -0.399135508004    -0.520104394879     1.007825032230
         H           -0.008166184572    -1.244483580501     1.366561775222     1.007825032230
         H           -1.417113855494    -0.363970490537     0.748611328111     1.007825032230

  Running in c1 symmetry.

  Rotational constants: A =      0.46060  B =      0.18312  C =      0.14685 [cm^-1]
  Rotational constants: A =  13808.56676  B =   5489.91458  C =   4402.56119 [MHz]
  Nuclear repulsion =  133.003877947970579

  Charge       = 0
  Multiplicity = 1
  Electrons    = 34
  Nalpha       = 17
  Nbeta        = 17

  ==> Algorithm <==

  SCF Algorithm Type is DF.
  DIIS enabled.
  MOM disabled.
  Fractional occupation disabled.
  Guess Type is SAD.
  Energy threshold   = 1.00e-08
  Density threshold  = 1.00e-06
  Integral threshold = 1.00e-12

  ==> Primary Basis <==

  Basis Set: DEF2-SVP
    Blend: DEF2-SVP
    Number of shells: 42
    Number of basis functions: 86
    Number of Cartesian functions: 90
    Spherical Harmonics?: true
    Max angular momentum: 2

  ==> DFT Potential <==

   => LibXC <=

    Version 7.1.2
    S. Lehtola, C. Steigemann, M. J. T. Oliveira, and M. A. L. Marques,  SoftwareX 7, 1–5 (2018) (10.1016/j.softx.2017.11.002)

   => Composite Functional: B3LYP-D3BJ2B <= 

    B3LYP-d3bj2b Hyb-GGA Exchange-Correlation Functional

    P. J. Stephens, F. J. Devlin, C. F. Chabalowski, and M. J. Frisch,  J. Phys. Chem. 98, 11623 (1994) (10.1021/j100096a001)

    Deriv               =              1
    GGA                 =           TRUE
    Meta                =          FALSE

    Exchange Hybrid     =           TRUE
    MP2 Hybrid          =          FALSE

   => Exchange Functionals <=

    0.0800   Slater exchange
    0.7200         Becke 88

   => Exact (HF) Exchange <=

    0.2000               HF 

   => Correlation Functionals <=

    0.1900   Vosko, Wilk & Nusair (VWN5_RPA)
    0.8100   Lee, Yang & Parr

   => LibXC Density Thresholds  <==

    XC_HYB_GGA_XC_B3LYP:  1.00E-15 

   => Molecular Quadrature <=

    Radial Scheme          =       TREUTLER
    Pruning Scheme         =           NONE
    Nuclear Scheme         =       TREUTLER

    Blocking Scheme        =         OCTREE
    BS radius alpha        =              1
    Pruning alpha          =              1
    Radial Points          =             75
    Spherical Points       =            302
    Total Points           =         214361
    Total Blocks           =           1652
    Max Points             =            256
    Max Functions          =             86
    Weights Tolerance      =       1.00E-15

   => Loading Basis Set <=

    Name: (DEF2-SVP AUX)
    Role: JKFIT
    Keyword: DF_BASIS_SCF
    atoms 1, 4 entry O          line   318 file /Users/hoyoun/micromamba/envs/psi4env/share/psi4/basis/def2-universal-jkfit.gbs 
    atoms 2-3  entry C          line   198 file /Users/hoyoun/micromamba/envs/psi4env/share/psi4/basis/def2-universal-jkfit.gbs 
    atoms 5-10 entry H          line    18 file /Users/hoyoun/micromamba/envs/psi4env/share/psi4/basis/def2-universal-jkfit.gbs 

  ==> Integral Setup <==

  DFHelper Memory: AOs need 0.026 GiB; user supplied 1.632 GiB. 
  SCF_SUBTYPE=INCORE selected. In-core MEM_DF algorithm will be used.
  Using in-core AOs.

  ==> MemDFJK: Density-Fitted J/K Matrices <==

    J tasked:                   Yes
    K tasked:                   Yes
    wK tasked:                   No
    OpenMP threads:               8
    Memory [MiB]:              1671
    Algorithm:                 Core
    Schwarz Cutoff:           1E-12
    Mask sparsity (%):       0.4327
    Fitting Condition:        1E-10

   => Auxiliary Basis Set <=

  Basis Set: (DEF2-SVP AUX)
    Blend: DEF2-UNIVERSAL-JKFIT
    Number of shells: 136
    Number of basis functions: 412
    Number of Cartesian functions: 484
    Spherical Harmonics?: true
    Max angular momentum: 4

  Cached 100.0% of DFT collocation blocks in 0.463 [GiB].

  Minimum eigenvalue in the overlap matrix is 3.3054107832E-03.
  Reciprocal condition number of the overlap matrix is 5.7326664345E-04.
    Using symmetric orthogonalization.

  ==> Pre-Iterations <==

  SCF Guess: Superposition of Atomic Densities via on-the-fly atomic UHF (no occupation information).

   -------------------------
    Irrep   Nso     Nmo    
   -------------------------
     A         86      86 
   -------------------------
    Total      86      86
   -------------------------

  ==> Iterations <==

                           Total Energy        Delta E     RMS |[F,P]|

   @DF-RKS iter SAD:  -229.55800934534452   -2.29558e+02   0.00000e+00 
   @DF-RKS iter   1:  -229.80524789659196   -2.47239e-01   9.18589e-03 ADIIS/DIIS
   @DF-RKS iter   2:  -229.63266429610738    1.72584e-01   1.21379e-02 ADIIS/DIIS
   @DF-RKS iter   3:  -230.08367539815438   -4.51011e-01   1.05741e-03 ADIIS/DIIS
   @DF-RKS iter   4:  -230.08664611349170   -2.97072e-03   4.82641e-04 ADIIS/DIIS
   @DF-RKS iter   5:  -230.08737057566836   -7.24462e-04   6.34505e-05 DIIS
   @DF-RKS iter   6:  -230.08738298549395   -1.24098e-05   7.15641e-06 DIIS
   @DF-RKS iter   7:  -230.08738313731934   -1.51825e-07   2.03008e-06 DIIS
   @DF-RKS iter   8:  -230.08738314742052   -1.01012e-08   1.10353e-06 DIIS
   @DF-RKS iter   9:  -230.08738315083545   -3.41493e-09   1.51186e-07 DIIS
  Energy and wave function converged.


  ==> Post-Iterations <==

   Electrons on quadrature grid:
      Ntotal   =   33.9999774703 ; deviation = -2.253e-05 

    Orbital Energies [Eh]
    ---------------------

    Doubly Occupied:                                                      

       1A    -19.136762     2A    -19.116304     3A    -10.233329  
       4A    -10.225543     5A     -1.015879     6A     -0.987652  
       7A     -0.732316     8A     -0.610710     9A     -0.530714  
      10A     -0.492690    11A     -0.460189    12A     -0.419398  
      13A     -0.404278    14A     -0.351434    15A     -0.324674  
      16A     -0.282989    17A     -0.263435  

    Virtual:                                                              

      18A      0.041462    19A      0.083647    20A      0.093765  
      21A      0.120651    22A      0.128496    23A      0.142834  
      24A      0.190512    25A      0.213497    26A      0.233156  
      27A      0.462670    28A      0.475633    29A      0.478469  
      30A      0.493733    31A      0.559863    32A      0.580558  
      33A      0.614363    34A      0.643470    35A      0.651562  
      36A      0.662037    37A      0.677804    38A      0.691665  
      39A      0.698043    40A      0.830176    41A      0.954183  
      42A      0.973518    43A      0.993974    44A      1.035933  
      45A      1.140693    46A      1.170383    47A      1.269805  
      48A      1.305062    49A      1.363190    50A      1.374437  
      51A      1.452075    52A      1.504376    53A      1.515828  
      54A      1.599976    55A      1.658244    56A      1.724352  
      57A      1.732139    58A      1.774949    59A      1.812980  
      60A      1.831490    61A      1.866874    62A      1.873017  
      63A      1.893337    64A      1.962054    65A      2.098321  
      66A      2.144984    67A      2.219284    68A      2.247540  
      69A      2.275972    70A      2.325738    71A      2.463373  
      72A      2.504118    73A      2.711597    74A      2.751846  
      75A      2.867688    76A      2.884899    77A      2.925854  
      78A      2.993453    79A      3.035079    80A      3.060299  
      81A      3.146384    82A      3.171956    83A      3.310231  
      84A      3.349661    85A      3.750661    86A      3.781811  

    Final Occupation by Irrep:
              A 
    DOCC [    17 ]
    NA   [    17 ]
    NB   [    17 ]

  @DF-RKS Final Energy:  -230.08738315083545

   => Energetics <=

    Nuclear Repulsion Energy =            133.0038779479705795
    One-Electron Energy =                -577.3863141657596998
    Two-Electron Energy =                 238.8132256840848413
    DFT Exchange-Correlation Energy =     -24.5092235168184409
    Empirical Dispersion Energy =          -0.0089491003127226
    VV10 Nonlocal Energy =                  0.0000000000000000
    Total Energy =                       -230.0873831508354499

Computation Completed


Properties will be evaluated at   0.000000,   0.000000,   0.000000 [a0]

Properties computed using the SCF density matrix


 Multipole Moments:

 ------------------------------------------------------------------------------------
     Multipole            Electronic (a.u.)      Nuclear  (a.u.)        Total (a.u.)
 ------------------------------------------------------------------------------------

 L = 1.  Multiply by 2.5417464519 to convert [e a0] to [Debye]
 Dipole X            :          1.5738864           -1.3545201            0.2193663
 Dipole Y            :        -13.9947788           13.7192085           -0.2755703
 Dipole Z            :         -7.2283772            6.3530579           -0.8753193
 Magnitude           :                                                    0.9435277

 ------------------------------------------------------------------------------------

*** tstop() called on choehoyun-ui-MacBookAir.local at Mon Aug 10 18:36:18 2026
Module time:
	user time   =       4.75 seconds =       0.08 minutes
	system time =       0.19 seconds =       0.00 minutes
	total time  =          2 seconds =       0.03 minutes
Total time:
	user time   =       4.75 seconds =       0.08 minutes
	system time =       0.19 seconds =       0.00 minutes
	total time  =          2 seconds =       0.03 minutes

    Psi4 stopped on: Monday, 10 August 2026 06:36PM
    Psi4 wall time for execution: 0:00:01.22

*** Psi4 exiting successfully. Buy a developer a beer!
