
    -----------------------------------------------------------------------
          Psi4: An Open-Source Ab Initio Electronic Structure Package
                               Psi4 1.11 release

                         Git: Rev {} zzzzzzz 


    D. G. A. Smith, L. A. Burns, A. C. Simmonett, R. M. Parrish,
    M. C. Schieber, R. Galvelis, P. Kraus, H. Kruse, R. Di Remigio,
    A. Alenaizan, A. M. James, S. Lehtola, J. P. Misiewicz, M. Scheurer,
    R. A. Shaw, J. B. Schriber, Y. Xie, Z. L. Glick, D. A. Sirianni,
    J. S. O'Brien, J. M. Waldrop, A. Kumar, E. G. Hohenstein,
    B. P. Pritchard, B. R. Brooks, H. F. Schaefer III, A. Yu. Sokolov,
    K. Patkowski, A. E. DePrince III, U. Bozkaya, R. A. King,
    F. A. Evangelista, J. M. Turney, T. D. Crawford, C. D. Sherrill,
    J. Chem. Phys. 152(18) 184108 (2020). https://doi.org/10.1063/5.0006002

                            Additional Code Authors
    E. T. Seidl, C. L. Janssen, E. F. Valeev, M. L. Leininger,
    J. F. Gonthier, R. M. Richard, H. R. McAlexander, M. Saitow, X. Wang,
    P. Verma, M. H. Lechner, A. Jiang, S. Behnle, A. G. Heide,
    M. F. Herbst, D. L. Poole, T. Győri, E. C. Mitchell, J. P. Pederson,
    and A. M. Wallace

             Previous Authors, Complete List of Code Contributors,
                       and Citations for Specific Modules
    https://github.com/psi4/psi4/blob/master/codemeta.json
    https://github.com/psi4/psi4/graphs/contributors
    https://psicode.org/psi4manual/master/introduction.html#citing-psifour

    -----------------------------------------------------------------------


    Psi4 started on: Monday, 10 August 2026 07:38PM

    Process ID: 79317
    Host:       choehoyun-ui-MacBookAir.local
    PSIDATADIR: /Users/hoyoun/micromamba/envs/psi4env/share/psi4
    Memory:     500.0 MiB
    Threads:    8
    Addons:     a̶d̶c̶c̶, a̶m̶b̶i̶t̶, b̶s̶e̶, c̶c̶t̶3̶, c̶f̶o̶u̶r̶, c̶h̶e̶m̶p̶s̶2̶, c̶p̶p̶e̶, d̶d̶x̶, dftd3,
                d̶f̶t̶d̶4̶, dkh, ecpint, einsums, f̶o̶r̶t̶e̶, gauxc, g̶c̶p̶, g̶d̶m̶a̶,
                g̶e̶o̶m̶e̶t̶r̶i̶c̶, g̶p̶u̶_̶d̶f̶c̶c̶, i̶n̶t̶e̶g̶r̶a̶t̶o̶r̶x̶x̶, i̶p̶i̶,
                l̶i̶b̶e̶f̶p̶, m̶d̶i̶, m̶p̶2̶d̶, m̶r̶c̶c̶, ooo, o̶p̶e̶n̶f̶e̶r̶m̶i̶o̶n̶p̶s̶i̶4̶,
                pcmsolver, p̶s̶i̶4̶f̶o̶c̶k̶c̶i̶, p̶s̶i̶x̶a̶s̶, p̶y̶e̶i̶n̶s̶u̶m̶s̶, r̶e̶s̶p̶,
                s̶i̶m̶i̶n̶t̶, s̶n̶s̶m̶p̶2̶, v̶2̶r̶d̶m̶_̶c̶a̶s̶s̶c̶f̶

  ==> Input File <==

--------------------------------------------------------------------------
memory 3 GB
molecule mol {
0 1
N 2.01718673473848 1.27404419379277 0.02015542045895
C 1.54748731441491 0.06995567387354 0.39774337726464
C 0.25468101048317 -0.08627091977242 0.91076068788529
C -0.67974898630627 0.97970243375149 0.98418975270156
C -2.13504783457392 0.62002351521029 1.47254472377645
O -0.48089543045960 2.16889622103425 0.67461356056191
C -3.11323241703347 0.39902910827044 0.25152935815460
C -4.53696384684845 -0.21026382427518 0.60524389006156
C -5.57185551525647 0.02164426153146 -0.53760078902778
C -6.96806503207586 -0.62470152998851 -0.30489682014650
C 2.42591022245491 -1.12548105784198 0.30545962488941
C 3.73370261368268 -1.09981733422973 0.82165365026697
C 4.53531478396187 -2.24117347219218 0.77119394339923
C 4.04376227313598 -3.41942782437349 0.19722582024460
C 2.74373985976929 -3.45272265758287 -0.31838087556617
C 1.93612112874199 -2.31453310006780 -0.26009614403036
H 4.10779274823898 -0.18759721148586 1.27998759382783
H 5.54099446288513 -2.21377570157958 1.18574035248552
H 4.67007058605159 -4.30821316949844 0.15599117784648
H 2.35717376183619 -4.36582344041028 -0.76617804305095
H 0.92511564942551 -2.33423314062016 -0.66037966320765
C 3.16671658343757 1.56983811530055 -0.84792977157811
C 2.65565147432755 2.17032891202229 -2.16682501212320
C 4.13458824371574 2.52010518934443 -0.13101544747811
H 3.67562513760511 0.62584950114850 -1.06024821435473
H 4.98805780237619 2.74973018788400 -0.78129874826757
H 3.62837208438077 3.46203837270110 0.11885782094898
H 4.50841090997762 2.07244895514063 0.79749887684226
H 3.50124608695196 2.39768941634744 -2.82823576155933
H 1.98361572593414 1.47033773821184 -2.67714538192750
H 2.10731082578896 3.10233811112763 -1.97462138347534
H 1.33575274706071 2.03167052956928 0.14713664825468
H -0.03092898674664 -1.07032624655263 1.25835846064734
F -2.15150219970192 -0.53156470950711 2.22537843438900
F -2.61316742967299 1.63085338650958 2.24713575358102
F -3.31492589983959 1.60181658086250 -0.36280907464901
F -2.49986717902889 -0.43937700787867 -0.63210488661133
F -5.01026614603697 0.41121877714601 1.72495903058845
F -4.39566262172132 -1.53541052089964 0.87088471032246
H -5.72753175813688 1.10173322656717 -0.63595773246821
F -5.07136250898095 -0.47915768388245 -1.72373703578175
F -7.77599640704581 -0.28053509758360 -1.33916090289871
F -6.91639037550849 -1.96805861182231 -0.24849471015086
F -7.53099019640255 -0.16282814530228 0.83287372895410
units angstrom
no_reorient
no_com
}
set basis def2-SVP
set scf_type disk_df
set freeze_core true
set e_convergence 8
energy('b3lyp-d3bj')
--------------------------------------------------------------------------

  Memory set to   2.794 GiB by Python driver.

Scratch directory: /Users/hoyoun/Documents/Yonsei_AX_Camp/(진짜_이게_최종)/calibration/dft_work/_scratch/i22p/
   => Libint2 <=

    Primary   basis highest AM E, G, H:  7, 6, 3
    Auxiliary basis highest AM E, G, H:  7, 7, 4
    Onebody   basis highest AM E, G, H:  -, -, -
    Solid Harmonics ordering:            Gaussian

*** tstart() called on choehoyun-ui-MacBookAir.local
*** at Mon Aug 10 19:38:23 2026

   => Loading Basis Set <=

    Name: DEF2-SVP
    Role: ORBITAL
    Keyword: BASIS
    atoms 1                entry N          line   110 file /Users/hoyoun/micromamba/envs/psi4env/share/psi4/basis/def2-svp.gbs 
    atoms 2-5, 7-16, 22-24 entry C          line    90 file /Users/hoyoun/micromamba/envs/psi4env/share/psi4/basis/def2-svp.gbs 
    atoms 6                entry O          line   130 file /Users/hoyoun/micromamba/envs/psi4env/share/psi4/basis/def2-svp.gbs 
    atoms 17-21, 25-33, 40 entry H          line    15 file /Users/hoyoun/micromamba/envs/psi4env/share/psi4/basis/def2-svp.gbs 
    atoms 34-39, 41-44     entry F          line   150 file /Users/hoyoun/micromamba/envs/psi4env/share/psi4/basis/def2-svp.gbs 

   => B3LYP-D3(BJ): Empirical Dispersion <=

    Grimme's -D3 (BJ-damping) Dispersion Correction
    Grimme S.; Ehrlich S.; Goerigk L. (2011), J. Comput. Chem., 32: 1456

        s6 =       1.000000
        s8 =       1.988900
        a1 =       0.398100
        a2 =       4.421100


         ---------------------------------------------------------
                                   SCF
               by Justin Turney, Rob Parrish, Andy Simmonett
                          and Daniel G. A. Smith
                              RKS Reference
                        8 Threads,   2861 MiB Core
         ---------------------------------------------------------

  ==> Geometry <==

    Molecular point group: c1
    Full point group: C1

    Geometry (in Angstrom), charge = 0, multiplicity = 1:

       Center              X                  Y                   Z               Mass       
    ------------   -----------------  -----------------  -----------------  -----------------
         N            2.017186734738     1.274044193793     0.020155420459    14.003074004430
         C            1.547487314415     0.069955673874     0.397743377265    12.000000000000
         C            0.254681010483    -0.086270919772     0.910760687885    12.000000000000
         C           -0.679748986306     0.979702433751     0.984189752702    12.000000000000
         C           -2.135047834574     0.620023515210     1.472544723776    12.000000000000
         O           -0.480895430460     2.168896221034     0.674613560562    15.994914619570
         C           -3.113232417033     0.399029108270     0.251529358155    12.000000000000
         C           -4.536963846848    -0.210263824275     0.605243890062    12.000000000000
         C           -5.571855515256     0.021644261531    -0.537600789028    12.000000000000
         C           -6.968065032076    -0.624701529989    -0.304896820146    12.000000000000
         C            2.425910222455    -1.125481057842     0.305459624889    12.000000000000
         C            3.733702613683    -1.099817334230     0.821653650267    12.000000000000
         C            4.535314783962    -2.241173472192     0.771193943399    12.000000000000
         C            4.043762273136    -3.419427824373     0.197225820245    12.000000000000
         C            2.743739859769    -3.452722657583    -0.318380875566    12.000000000000
         C            1.936121128742    -2.314533100068    -0.260096144030    12.000000000000
         H            4.107792748239    -0.187597211486     1.279987593828     1.007825032230
         H            5.540994462885    -2.213775701580     1.185740352486     1.007825032230
         H            4.670070586052    -4.308213169498     0.155991177846     1.007825032230
         H            2.357173761836    -4.365823440410    -0.766178043051     1.007825032230
         H            0.925115649426    -2.334233140620    -0.660379663208     1.007825032230
         C            3.166716583438     1.569838115301    -0.847929771578    12.000000000000
         C            2.655651474328     2.170328912022    -2.166825012123    12.000000000000
         C            4.134588243716     2.520105189344    -0.131015447478    12.000000000000
         H            3.675625137605     0.625849501149    -1.060248214355     1.007825032230
         H            4.988057802376     2.749730187884    -0.781298748268     1.007825032230
         H            3.628372084381     3.462038372701     0.118857820949     1.007825032230
         H            4.508410909978     2.072448955141     0.797498876842     1.007825032230
         H            3.501246086952     2.397689416347    -2.828235761559     1.007825032230
         H            1.983615725934     1.470337738212    -2.677145381928     1.007825032230
         H            2.107310825789     3.102338111128    -1.974621383475     1.007825032230
         H            1.335752747061     2.031670529569     0.147136648255     1.007825032230
         H           -0.030928986747    -1.070326246553     1.258358460647     1.007825032230
         F           -2.151502199702    -0.531564709507     2.225378434389    18.998403162730
         F           -2.613167429673     1.630853386510     2.247135753581    18.998403162730
         F           -3.314925899840     1.601816580863    -0.362809074649    18.998403162730
         F           -2.499867179029    -0.439377007879    -0.632104886611    18.998403162730
         F           -5.010266146037     0.411218777146     1.724959030588    18.998403162730
         F           -4.395662621721    -1.535410520900     0.870884710322    18.998403162730
         H           -5.727531758137     1.101733226567    -0.635957732468     1.007825032230
         F           -5.071362508981    -0.479157683882    -1.723737035782    18.998403162730
         F           -7.775996407046    -0.280535097584    -1.339160902899    18.998403162730
         F           -6.916390375508    -1.968058611822    -0.248494710151    18.998403162730
         F           -7.530990196403    -0.162828145302     0.832873728954    18.998403162730

  Running in c1 symmetry.

  Rotational constants: A =      0.01051  B =      0.00199  C =      0.00188 [cm^-1]
  Rotational constants: A =    315.07798  B =     59.68212  C =     56.33322 [MHz]
  Nuclear repulsion = 3078.961524171831570

  Charge       = 0
  Multiplicity = 1
  Electrons    = 222
  Nalpha       = 111
  Nbeta        = 111

  ==> Algorithm <==

  SCF Algorithm Type is DISK_DF.
  DIIS enabled.
  MOM disabled.
  Fractional occupation disabled.
  Guess Type is SAD.
  Energy threshold   = 1.00e-08
  Density threshold  = 1.00e-06
  Integral threshold = 1.00e-12

  ==> Primary Basis <==

  Basis Set: DEF2-SVP
    Blend: DEF2-SVP
    Number of shells: 219
    Number of basis functions: 481
    Number of Cartesian functions: 510
    Spherical Harmonics?: true
    Max angular momentum: 2

  ==> DFT Potential <==

   => LibXC <=

    Version 7.1.2
    S. Lehtola, C. Steigemann, M. J. T. Oliveira, and M. A. L. Marques,  SoftwareX 7, 1–5 (2018) (10.1016/j.softx.2017.11.002)

   => Composite Functional: B3LYP-D3BJ2B <= 

    B3LYP-d3bj2b Hyb-GGA Exchange-Correlation Functional

    P. J. Stephens, F. J. Devlin, C. F. Chabalowski, and M. J. Frisch,  J. Phys. Chem. 98, 11623 (1994) (10.1021/j100096a001)

    Deriv               =              1
    GGA                 =           TRUE
    Meta                =          FALSE

    Exchange Hybrid     =           TRUE
    MP2 Hybrid          =          FALSE

   => Exchange Functionals <=

    0.0800   Slater exchange
    0.7200         Becke 88

   => Exact (HF) Exchange <=

    0.2000               HF 

   => Correlation Functionals <=

    0.1900   Vosko, Wilk & Nusair (VWN5_RPA)
    0.8100   Lee, Yang & Parr

   => LibXC Density Thresholds  <==

    XC_HYB_GGA_XC_B3LYP:  1.00E-15 

   => Molecular Quadrature <=

    Radial Scheme          =       TREUTLER
    Pruning Scheme         =           NONE
    Nuclear Scheme         =       TREUTLER

    Blocking Scheme        =         OCTREE
    BS radius alpha        =              1
    Pruning alpha          =              1
    Radial Points          =             75
    Spherical Points       =            302
    Total Points           =         904964
    Total Blocks           =           6391
    Max Points             =            256
    Max Functions          =            271
    Weights Tolerance      =       1.00E-15

   => Loading Basis Set <=

    Name: (DEF2-SVP AUX)
    Role: JKFIT
    Keyword: DF_BASIS_SCF
    atoms 1                entry N          line   258 file /Users/hoyoun/micromamba/envs/psi4env/share/psi4/basis/def2-universal-jkfit.gbs 
    atoms 2-5, 7-16, 22-24 entry C          line   198 file /Users/hoyoun/micromamba/envs/psi4env/share/psi4/basis/def2-universal-jkfit.gbs 
    atoms 6                entry O          line   318 file /Users/hoyoun/micromamba/envs/psi4env/share/psi4/basis/def2-universal-jkfit.gbs 
    atoms 17-21, 25-33, 40 entry H          line    18 file /Users/hoyoun/micromamba/envs/psi4env/share/psi4/basis/def2-universal-jkfit.gbs 
    atoms 34-39, 41-44     entry F          line   378 file /Users/hoyoun/micromamba/envs/psi4env/share/psi4/basis/def2-universal-jkfit.gbs 

  ==> Integral Setup <==

  ==> DiskDFJK: Density-Fitted J/K Matrices <==

    J tasked:                  Yes
    K tasked:                  Yes
    wK tasked:                  No
    OpenMP threads:              8
    Integrals threads:           8
    Memory [MiB]:             1429
    Algorithm:                Disk
    Integral Cache:           NONE
    Schwarz Cutoff:          1E-12
    Fitting Condition:       1E-10

   => Auxiliary Basis Set <=

  Basis Set: (DEF2-SVP AUX)
    Blend: DEF2-UNIVERSAL-JKFIT
    Number of shells: 815
    Number of basis functions: 2469
    Number of Cartesian functions: 2929
    Spherical Harmonics?: true
    Max angular momentum: 4

  Cached 14.3% of DFT collocation blocks in 0.631 [GiB].

  Minimum eigenvalue in the overlap matrix is 2.9132699650E-04.
  Reciprocal condition number of the overlap matrix is 4.2862421241E-05.
    Using symmetric orthogonalization.

  ==> Pre-Iterations <==

  SCF Guess: Superposition of Atomic Densities via on-the-fly atomic UHF (no occupation information).

   -------------------------
    Irrep   Nso     Nmo    
   -------------------------
     A        481     481 
   -------------------------
    Total     481     481
   -------------------------

  ==> Iterations <==

                           Total Energy        Delta E     RMS |[F,P]|

   @DF-RKS iter SAD: -1782.81745419152912   -1.78282e+03   0.00000e+00 
   @DF-RKS iter   1: -1782.97940512195805   -1.61951e-01   2.97983e-03 ADIIS/DIIS
   @DF-RKS iter   2: -1782.57428656626689    4.05119e-01   3.66334e-03 ADIIS/DIIS
   @DF-RKS iter   3: -1783.92335586100444   -1.34907e+00   7.51043e-04 ADIIS/DIIS
   @DF-RKS iter   4: -1783.97173352192158   -4.83777e-02   2.99982e-04 ADIIS/DIIS
   @DF-RKS iter   5: -1783.97957005550779   -7.83653e-03   1.05164e-04 ADIIS/DIIS
   @DF-RKS iter   6: -1783.98050101972945   -9.30964e-04   3.66208e-05 DIIS
   @DF-RKS iter   7: -1783.98060976173792   -1.08742e-04   1.37257e-05 DIIS
   @DF-RKS iter   8: -1783.98063012472312   -2.03630e-05   4.23344e-06 DIIS
   @DF-RKS iter   9: -1783.98063201880041   -1.89408e-06   9.36258e-07 DIIS
   @DF-RKS iter  10: -1783.98063209659813   -7.77977e-08   3.57481e-07 DIIS
   @DF-RKS iter  11: -1783.98063210978557   -1.31874e-08   1.14997e-07 DIIS
   @DF-RKS iter  12: -1783.98063211132626   -1.54068e-09   3.40366e-08 DIIS
  Energy and wave function converged.


  ==> Post-Iterations <==

   Electrons on quadrature grid:
      Ntotal   =  221.9998145282 ; deviation = -1.855e-04 

    Orbital Energies [Eh]
    ---------------------

    Doubly Occupied:                                                      

       1A    -24.737034     2A    -24.734904     3A    -24.732674  
       4A    -24.731258     5A    -24.730767     6A    -24.729052  
       7A    -24.729033     8A    -24.715171     9A    -24.714776  
      10A    -24.708720    11A    -19.122206    12A    -14.370138  
      13A    -10.456422    14A    -10.396478    15A    -10.390884  
      16A    -10.371035    17A    -10.322861    18A    -10.275682  
      19A    -10.268741    20A    -10.247219    21A    -10.222745  
      22A    -10.215836    23A    -10.213391    24A    -10.213223  
      25A    -10.212873    26A    -10.211746    27A    -10.200016  
      28A    -10.198488    29A    -10.182257    30A     -1.309363  
      31A     -1.280418    32A     -1.262800    33A     -1.246883  
      34A     -1.224558    35A     -1.218907    36A     -1.215653  
      37A     -1.214044    38A     -1.205294    39A     -1.188879  
      40A     -1.021252    41A     -0.960160    42A     -0.872218  
      43A     -0.821475    44A     -0.817500    45A     -0.785851  
      46A     -0.771901    47A     -0.762106    48A     -0.752970  
      49A     -0.726537    50A     -0.701142    51A     -0.687404  
      52A     -0.663113    53A     -0.650698    54A     -0.629846  
      55A     -0.624542    56A     -0.616370    57A     -0.613714  
      58A     -0.609190    59A     -0.600162    60A     -0.596038  
      61A     -0.591102    62A     -0.581433    63A     -0.575568  
      64A     -0.571389    65A     -0.558181    66A     -0.552807  
      67A     -0.545767    68A     -0.530515    69A     -0.518628  
      70A     -0.501287    71A     -0.484204    72A     -0.482892  
      73A     -0.481427    74A     -0.480521    75A     -0.478796  
      76A     -0.475660    77A     -0.467682    78A     -0.463064  
      79A     -0.459381    80A     -0.456482    81A     -0.455142  
      82A     -0.452882    83A     -0.449900    84A     -0.443364  
      85A     -0.441399    86A     -0.441074    87A     -0.436976  
      88A     -0.436082    89A     -0.431730    90A     -0.426935  
      91A     -0.425822    92A     -0.423010    93A     -0.419083  
      94A     -0.411616    95A     -0.409328    96A     -0.407119  
      97A     -0.399525    98A     -0.393005    99A     -0.387826  
     100A     -0.382922   101A     -0.380025   102A     -0.377411  
     103A     -0.371266   104A     -0.367457   105A     -0.363597  
     106A     -0.341875   107A     -0.339076   108A     -0.278583  
     109A     -0.277555   110A     -0.259472   111A     -0.229298  

    Virtual:                                                              

     112A     -0.073166   113A     -0.032520   114A     -0.024749  
     115A      0.019615   116A      0.035751   117A      0.042987  
     118A      0.054867   119A      0.061044   120A      0.069438  
     121A      0.076200   122A      0.082867   123A      0.092449  
     124A      0.096595   125A      0.105943   126A      0.107950  
     127A      0.118698   128A      0.121070   129A      0.123681  
     130A      0.128398   131A      0.129966   132A      0.139805  
     133A      0.142267   134A      0.149811   135A      0.152747  
     136A      0.164855   137A      0.180634   138A      0.181920  
     139A      0.183358   140A      0.186201   141A      0.204994  
     142A      0.209665   143A      0.212481   144A      0.216492  
     145A      0.218710   146A      0.231781   147A      0.235005  
     148A      0.248173   149A      0.255475   150A      0.257966  
     151A      0.266547   152A      0.271032   153A      0.278857  
     154A      0.289239   155A      0.303763   156A      0.324170  
     157A      0.332652   158A      0.337994   159A      0.353823  
     160A      0.356521   161A      0.376798   162A      0.387492  
     163A      0.392776   164A      0.397523   165A      0.404466  
     166A      0.408816   167A      0.412957   168A      0.429898  
     169A      0.433616   170A      0.437754   171A      0.439820  
     172A      0.449321   173A      0.458399   174A      0.462431  
     175A      0.466821   176A      0.474361   177A      0.476519  
     178A      0.484727   179A      0.489711   180A      0.506731  
     181A      0.521010   182A      0.526927   183A      0.533744  
     184A      0.537431   185A      0.543926   186A      0.547669  
     187A      0.557157   188A      0.561445   189A      0.572220  
     190A      0.577929   191A      0.579507   192A      0.582256  
     193A      0.593338   194A      0.602806   195A      0.610515  
     196A      0.612180   197A      0.622260   198A      0.624660  
     199A      0.629340   200A      0.633806   201A      0.635501  
     202A      0.643489   203A      0.647701   204A      0.651204  
     205A      0.658898   206A      0.660361   207A      0.666130  
     208A      0.670890   209A      0.675413   210A      0.676982  
     211A      0.680815   212A      0.682267   213A      0.693174  
     214A      0.701496   215A      0.702991   216A      0.708030  
     217A      0.713643   218A      0.720879   219A      0.734131  
     220A      0.739544   221A      0.744289   222A      0.745903  
     223A      0.758799   224A      0.777095   225A      0.781859  
     226A      0.790670   227A      0.799976   228A      0.824890  
     229A      0.833128   230A      0.857178   231A      0.865442  
     232A      0.901172   233A      0.915727   234A      0.919117  
     235A      0.941667   236A      0.977401   237A      1.009476  
     238A      1.021870   239A      1.035996   240A      1.045682  
     241A      1.053064   242A      1.057011   243A      1.067904  
     244A      1.071148   245A      1.078225   246A      1.080391  
     247A      1.095269   248A      1.099303   249A      1.109906  
     250A      1.124406   251A      1.130075   252A      1.140445  
     253A      1.141047   254A      1.146325   255A      1.167444  
     256A      1.184446   257A      1.199445   258A      1.201536  
     259A      1.214519   260A      1.221198   261A      1.235037  
     262A      1.248906   263A      1.253972   264A      1.255986  
     265A      1.264661   266A      1.271786   267A      1.278577  
     268A      1.283003   269A      1.290076   270A      1.297129  
     271A      1.298195   272A      1.318467   273A      1.324815  
     274A      1.331222   275A      1.338387   276A      1.341726  
     277A      1.344388   278A      1.359167   279A      1.370731  
     280A      1.380828   281A      1.384850   282A      1.387116  
     283A      1.402995   284A      1.416921   285A      1.428042  
     286A      1.436054   287A      1.451062   288A      1.466001  
     289A      1.476032   290A      1.487676   291A      1.498918  
     292A      1.507802   293A      1.515754   294A      1.520997  
     295A      1.531430   296A      1.536926   297A      1.543384  
     298A      1.570648   299A      1.588749   300A      1.596440  
     301A      1.619679   302A      1.626553   303A      1.652591  
     304A      1.654138   305A      1.658492   306A      1.660488  
     307A      1.669639   308A      1.677941   309A      1.688413  
     310A      1.701003   311A      1.709770   312A      1.715642  
     313A      1.718540   314A      1.720881   315A      1.727180  
     316A      1.735238   317A      1.737998   318A      1.743139  
     319A      1.746923   320A      1.753495   321A      1.756516  
     322A      1.767248   323A      1.777284   324A      1.783038  
     325A      1.788691   326A      1.793459   327A      1.799457  
     328A      1.804788   329A      1.814268   330A      1.822155  
     331A      1.838379   332A      1.844524   333A      1.851184  
     334A      1.858610   335A      1.861761   336A      1.869595  
     337A      1.870183   338A      1.879288   339A      1.890963  
     340A      1.896826   341A      1.905464   342A      1.916947  
     343A      1.931037   344A      1.940676   345A      1.942238  
     346A      1.957967   347A      1.965706   348A      1.968064  
     349A      1.969889   350A      1.984680   351A      1.989162  
     352A      1.998154   353A      2.006800   354A      2.022415  
     355A      2.028001   356A      2.044592   357A      2.050936  
     358A      2.070320   359A      2.083828   360A      2.090601  
     361A      2.100810   362A      2.109448   363A      2.112232  
     364A      2.118923   365A      2.124504   366A      2.132120  
     367A      2.147200   368A      2.160926   369A      2.187934  
     370A      2.199566   371A      2.211110   372A      2.229686  
     373A      2.243943   374A      2.252006   375A      2.268411  
     376A      2.274340   377A      2.278363   378A      2.285024  
     379A      2.287642   380A      2.305314   381A      2.312840  
     382A      2.317097   383A      2.321537   384A      2.337087  
     385A      2.360288   386A      2.378433   387A      2.388257  
     388A      2.397515   389A      2.403680   390A      2.439964  
     391A      2.460265   392A      2.494849   393A      2.504730  
     394A      2.529296   395A      2.552056   396A      2.555612  
     397A      2.572773   398A      2.589197   399A      2.613520  
     400A      2.622724   401A      2.634368   402A      2.636814  
     403A      2.661241   404A      2.699900   405A      2.712150  
     406A      2.716118   407A      2.716571   408A      2.735011  
     409A      2.775472   410A      2.799850   411A      2.803090  
     412A      2.837308   413A      2.847941   414A      2.854905  
     415A      2.872292   416A      2.901522   417A      2.914686  
     418A      2.936963   419A      2.982297   420A      2.986597  
     421A      2.993391   422A      3.008499   423A      3.014496  
     424A      3.022346   425A      3.026564   426A      3.028319  
     427A      3.033184   428A      3.033778   429A      3.038903  
     430A      3.040366   431A      3.043332   432A      3.047386  
     433A      3.050228   434A      3.053930   435A      3.063267  
     436A      3.066482   437A      3.068537   438A      3.071769  
     439A      3.079975   440A      3.101254   441A      3.103801  
     442A      3.111275   443A      3.113735   444A      3.122620  
     445A      3.131193   446A      3.139151   447A      3.151835  
     448A      3.154644   449A      3.158518   450A      3.166669  
     451A      3.177282   452A      3.207709   453A      3.217848  
     454A      3.241217   455A      3.267486   456A      3.305840  
     457A      3.315197   458A      3.336596   459A      3.349213  
     460A      3.386105   461A      3.393547   462A      3.412378  
     463A      3.437606   464A      3.466701   465A      3.490223  
     466A      3.516392   467A      3.523346   468A      3.527946  
     469A      3.548716   470A      3.609744   471A      3.636510  
     472A      3.646574   473A      3.672221   474A      3.712247  
     475A      3.750489   476A      3.785235   477A      3.819395  
     478A      3.830877   479A      3.836594   480A      3.872253  
     481A      3.895715  

    Final Occupation by Irrep:
              A 
    DOCC [   111 ]
    NA   [   111 ]
    NB   [   111 ]

  @DF-RKS Final Energy: -1783.98063211132626

   => Energetics <=

    Nuclear Repulsion Energy =           3078.9615241718315701
    One-Electron Energy =               -8588.6361627456135466
    Two-Electron Energy =                3901.9085081101552532
    DFT Exchange-Correlation Energy =    -176.1284527368599129
    Empirical Dispersion Energy =          -0.0860489108387407
    VV10 Nonlocal Energy =                  0.0000000000000000
    Total Energy =                      -1783.9806321113258036

Computation Completed


Properties will be evaluated at   0.000000,   0.000000,   0.000000 [a0]

Properties computed using the SCF density matrix


 Multipole Moments:

 ------------------------------------------------------------------------------------
     Multipole            Electronic (a.u.)      Nuclear  (a.u.)        Total (a.u.)
 ------------------------------------------------------------------------------------

 L = 1.  Multiply by 2.5417464519 to convert [e a0] to [Debye]
 Dipole X            :        623.5771743         -621.0403232            2.5368512
 Dipole Y            :         41.9081925          -42.1723152           -0.2641227
 Dipole Z            :        -84.5771390           83.8218781           -0.7552609
 Magnitude           :                                                    2.6600364

 ------------------------------------------------------------------------------------

*** tstop() called on choehoyun-ui-MacBookAir.local at Mon Aug 10 19:39:52 2026
Module time:
	user time   =     494.00 seconds =       8.23 minutes
	system time =      11.11 seconds =       0.19 minutes
	total time  =         89 seconds =       1.48 minutes
Total time:
	user time   =     494.00 seconds =       8.23 minutes
	system time =      11.11 seconds =       0.19 minutes
	total time  =         89 seconds =       1.48 minutes

    Psi4 stopped on: Monday, 10 August 2026 07:39PM
    Psi4 wall time for execution: 0:01:28.66

*** Psi4 exiting successfully. Buy a developer a beer!
