
    -----------------------------------------------------------------------
          Psi4: An Open-Source Ab Initio Electronic Structure Package
                               Psi4 1.11 release

                         Git: Rev {} zzzzzzz 


    D. G. A. Smith, L. A. Burns, A. C. Simmonett, R. M. Parrish,
    M. C. Schieber, R. Galvelis, P. Kraus, H. Kruse, R. Di Remigio,
    A. Alenaizan, A. M. James, S. Lehtola, J. P. Misiewicz, M. Scheurer,
    R. A. Shaw, J. B. Schriber, Y. Xie, Z. L. Glick, D. A. Sirianni,
    J. S. O'Brien, J. M. Waldrop, A. Kumar, E. G. Hohenstein,
    B. P. Pritchard, B. R. Brooks, H. F. Schaefer III, A. Yu. Sokolov,
    K. Patkowski, A. E. DePrince III, U. Bozkaya, R. A. King,
    F. A. Evangelista, J. M. Turney, T. D. Crawford, C. D. Sherrill,
    J. Chem. Phys. 152(18) 184108 (2020). https://doi.org/10.1063/5.0006002

                            Additional Code Authors
    E. T. Seidl, C. L. Janssen, E. F. Valeev, M. L. Leininger,
    J. F. Gonthier, R. M. Richard, H. R. McAlexander, M. Saitow, X. Wang,
    P. Verma, M. H. Lechner, A. Jiang, S. Behnle, A. G. Heide,
    M. F. Herbst, D. L. Poole, T. Győri, E. C. Mitchell, J. P. Pederson,
    and A. M. Wallace

             Previous Authors, Complete List of Code Contributors,
                       and Citations for Specific Modules
    https://github.com/psi4/psi4/blob/master/codemeta.json
    https://github.com/psi4/psi4/graphs/contributors
    https://psicode.org/psi4manual/master/introduction.html#citing-psifour

    -----------------------------------------------------------------------


    Psi4 started on: Monday, 10 August 2026 06:34PM

    Process ID: 75491
    Host:       choehoyun-ui-MacBookAir.local
    PSIDATADIR: /Users/hoyoun/micromamba/envs/psi4env/share/psi4
    Memory:     500.0 MiB
    Threads:    8
    Addons:     a̶d̶c̶c̶, a̶m̶b̶i̶t̶, b̶s̶e̶, c̶c̶t̶3̶, c̶f̶o̶u̶r̶, c̶h̶e̶m̶p̶s̶2̶, c̶p̶p̶e̶, d̶d̶x̶, dftd3,
                d̶f̶t̶d̶4̶, dkh, ecpint, einsums, f̶o̶r̶t̶e̶, gauxc, g̶c̶p̶, g̶d̶m̶a̶,
                g̶e̶o̶m̶e̶t̶r̶i̶c̶, g̶p̶u̶_̶d̶f̶c̶c̶, i̶n̶t̶e̶g̶r̶a̶t̶o̶r̶x̶x̶, i̶p̶i̶,
                l̶i̶b̶e̶f̶p̶, m̶d̶i̶, m̶p̶2̶d̶, m̶r̶c̶c̶, ooo, o̶p̶e̶n̶f̶e̶r̶m̶i̶o̶n̶p̶s̶i̶4̶,
                pcmsolver, p̶s̶i̶4̶f̶o̶c̶k̶c̶i̶, p̶s̶i̶x̶a̶s̶, p̶y̶e̶i̶n̶s̶u̶m̶s̶, r̶e̶s̶p̶,
                s̶i̶m̶i̶n̶t̶, s̶n̶s̶m̶p̶2̶, v̶2̶r̶d̶m̶_̶c̶a̶s̶s̶c̶f̶

  ==> Input File <==

--------------------------------------------------------------------------
memory 3 GB
molecule mol {
0 1
C 0.00000000000000 1.19047391560608 0.02647299804359
C 0.00000000000000 0.73213394786395 -1.23747591226728
C 0.00000000000000 -0.73213394786395 -1.23747591226728
C 0.00000000000000 -1.19047391560608 0.02647299804359
C 0.00000000000000 0.00000000000000 0.95243693228907
C 0.00000000000000 2.60218181509645 0.50296996406869
C 0.00000000000000 -2.60218181509645 0.50296996406869
H 0.00000000000000 1.34541590438703 -2.12755984881541
H 0.00000000000000 -1.34541590438703 -2.12755984881541
H -0.87505493809699 0.00000000000000 1.61190788565291
H 0.87505493809699 0.00000000000000 1.61190788565291
H -0.87687693756831 2.81789580014911 1.12023492051008
H 0.00000000000000 3.30000876568955 -0.33392297633962
H 0.87687693756831 2.81789580014911 1.12023492051008
H 0.00000000000000 -3.30000876568955 -0.33392297633962
H -0.87687693756831 -2.81789580014911 1.12023492051008
H 0.87687693756831 -2.81789580014911 1.12023492051008
units angstrom
no_reorient
no_com
}
set basis def2-SVP
set scf_type df
set freeze_core true
set e_convergence 8
energy('b3lyp-d3bj')
--------------------------------------------------------------------------

  Memory set to   2.794 GiB by Python driver.

Scratch directory: /Users/hoyoun/Documents/Yonsei_AX_Camp/(진짜_이게_최종)/calibration/dft_work/_scratch/R57/
   => Libint2 <=

    Primary   basis highest AM E, G, H:  7, 6, 3
    Auxiliary basis highest AM E, G, H:  7, 7, 4
    Onebody   basis highest AM E, G, H:  -, -, -
    Solid Harmonics ordering:            Gaussian

*** tstart() called on choehoyun-ui-MacBookAir.local
*** at Mon Aug 10 18:34:30 2026

   => Loading Basis Set <=

    Name: DEF2-SVP
    Role: ORBITAL
    Keyword: BASIS
    atoms 1-7  entry C          line    90 file /Users/hoyoun/micromamba/envs/psi4env/share/psi4/basis/def2-svp.gbs 
    atoms 8-17 entry H          line    15 file /Users/hoyoun/micromamba/envs/psi4env/share/psi4/basis/def2-svp.gbs 

   => B3LYP-D3(BJ): Empirical Dispersion <=

    Grimme's -D3 (BJ-damping) Dispersion Correction
    Grimme S.; Ehrlich S.; Goerigk L. (2011), J. Comput. Chem., 32: 1456

        s6 =       1.000000
        s8 =       1.988900
        a1 =       0.398100
        a2 =       4.421100


         ---------------------------------------------------------
                                   SCF
               by Justin Turney, Rob Parrish, Andy Simmonett
                          and Daniel G. A. Smith
                              RKS Reference
                        8 Threads,   2861 MiB Core
         ---------------------------------------------------------

  ==> Geometry <==

    Molecular point group: c2v
    Full point group: C2v

    Geometry (in Angstrom), charge = 0, multiplicity = 1:

       Center              X                  Y                   Z               Mass       
    ------------   -----------------  -----------------  -----------------  -----------------
         C           -0.000000000000     1.190473915606     0.026472998044    12.000000000000
         C           -0.000000000000     0.732133947864    -1.237475912267    12.000000000000
         C            0.000000000000    -0.732133947864    -1.237475912267    12.000000000000
         C            0.000000000000    -1.190473915606     0.026472998044    12.000000000000
         C            0.000000000000     0.000000000000     0.952436932289    12.000000000000
         C           -0.000000000000     2.602181815096     0.502969964069    12.000000000000
         C            0.000000000000    -2.602181815096     0.502969964069    12.000000000000
         H           -0.000000000000     1.345415904387    -2.127559848815     1.007825032230
         H            0.000000000000    -1.345415904387    -2.127559848815     1.007825032230
         H           -0.875054938097    -0.000000000000     1.611907885653     1.007825032230
         H            0.875054938097     0.000000000000     1.611907885653     1.007825032230
         H           -0.876876937568     2.817895800149     1.120234920510     1.007825032230
         H           -0.000000000000     3.300008765690    -0.333922976340     1.007825032230
         H            0.876876937568     2.817895800149     1.120234920510     1.007825032230
         H            0.000000000000    -3.300008765690    -0.333922976340     1.007825032230
         H           -0.876876937568    -2.817895800149     1.120234920510     1.007825032230
         H            0.876876937568    -2.817895800149     1.120234920510     1.007825032230

  Running in c2v symmetry.

  Rotational constants: A =      0.21608  B =      0.06206  C =      0.04953 [cm^-1]
  Rotational constants: A =   6478.04154  B =   1860.45045  C =   1484.78767 [MHz]
  Nuclear repulsion =  283.309317405075888

  Charge       = 0
  Multiplicity = 1
  Electrons    = 52
  Nalpha       = 26
  Nbeta        = 26

  ==> Algorithm <==

  SCF Algorithm Type is DF.
  DIIS enabled.
  MOM disabled.
  Fractional occupation disabled.
  Guess Type is SAD.
  Energy threshold   = 1.00e-08
  Density threshold  = 1.00e-06
  Integral threshold = 1.00e-12

  ==> Primary Basis <==

  Basis Set: DEF2-SVP
    Blend: DEF2-SVP
    Number of shells: 72
    Number of basis functions: 148
    Number of Cartesian functions: 155
    Spherical Harmonics?: true
    Max angular momentum: 2

  ==> DFT Potential <==

   => LibXC <=

    Version 7.1.2
    S. Lehtola, C. Steigemann, M. J. T. Oliveira, and M. A. L. Marques,  SoftwareX 7, 1–5 (2018) (10.1016/j.softx.2017.11.002)

   => Composite Functional: B3LYP-D3BJ2B <= 

    B3LYP-d3bj2b Hyb-GGA Exchange-Correlation Functional

    P. J. Stephens, F. J. Devlin, C. F. Chabalowski, and M. J. Frisch,  J. Phys. Chem. 98, 11623 (1994) (10.1021/j100096a001)

    Deriv               =              1
    GGA                 =           TRUE
    Meta                =          FALSE

    Exchange Hybrid     =           TRUE
    MP2 Hybrid          =          FALSE

   => Exchange Functionals <=

    0.0800   Slater exchange
    0.7200         Becke 88

   => Exact (HF) Exchange <=

    0.2000               HF 

   => Correlation Functionals <=

    0.1900   Vosko, Wilk & Nusair (VWN5_RPA)
    0.8100   Lee, Yang & Parr

   => LibXC Density Thresholds  <==

    XC_HYB_GGA_XC_B3LYP:  1.00E-15 

   => Molecular Quadrature <=

    Radial Scheme          =       TREUTLER
    Pruning Scheme         =           NONE
    Nuclear Scheme         =       TREUTLER

    Blocking Scheme        =         OCTREE
    BS radius alpha        =              1
    Pruning alpha          =              1
    Radial Points          =             75
    Spherical Points       =            302
    Total Points           =         358399
    Total Blocks           =           2670
    Max Points             =            256
    Max Functions          =            143
    Weights Tolerance      =       1.00E-15

   => Loading Basis Set <=

    Name: (DEF2-SVP AUX)
    Role: JKFIT
    Keyword: DF_BASIS_SCF
    atoms 1-7  entry C          line   198 file /Users/hoyoun/micromamba/envs/psi4env/share/psi4/basis/def2-universal-jkfit.gbs 
    atoms 8-17 entry H          line    18 file /Users/hoyoun/micromamba/envs/psi4env/share/psi4/basis/def2-universal-jkfit.gbs 

  ==> Integral Setup <==

  DFHelper Memory: AOs need 0.118 GiB; user supplied 0.972 GiB. 
  SCF_SUBTYPE=INCORE selected. In-core MEM_DF algorithm will be used.
  Using in-core AOs.

  ==> MemDFJK: Density-Fitted J/K Matrices <==

    J tasked:                   Yes
    K tasked:                   Yes
    wK tasked:                   No
    OpenMP threads:               8
    Memory [MiB]:               995
    Algorithm:                 Core
    Schwarz Cutoff:           1E-12
    Mask sparsity (%):       5.6885
    Fitting Condition:        1E-10

   => Auxiliary Basis Set <=

  Basis Set: (DEF2-SVP AUX)
    Blend: DEF2-UNIVERSAL-JKFIT
    Number of shells: 235
    Number of basis functions: 705
    Number of Cartesian functions: 823
    Spherical Harmonics?: true
    Max angular momentum: 4

  Cached 100.0% of DFT collocation blocks in 1.123 [GiB].

  Minimum eigenvalue in the overlap matrix is 7.7049479941E-04.
  Reciprocal condition number of the overlap matrix is 1.3756066062E-04.
    Using symmetric orthogonalization.

  ==> Pre-Iterations <==

  SCF Guess: Superposition of Atomic Densities via on-the-fly atomic UHF (no occupation information).

   -------------------------
    Irrep   Nso     Nmo    
   -------------------------
     A1        54      54 
     A2        21      21 
     B1        26      26 
     B2        47      47 
   -------------------------
    Total     148     148
   -------------------------

  ==> Iterations <==

                           Total Energy        Delta E     RMS |[F,P]|

   @DF-RKS iter SAD:  -272.10303008826884   -2.72103e+02   0.00000e+00 
   @DF-RKS iter   1:  -271.98513576908334    1.17894e-01   1.25926e-02 ADIIS/DIIS
   @DF-RKS iter   2:  -271.79401607162998    1.91120e-01   1.46042e-02 ADIIS/DIIS
   @DF-RKS iter   3:  -272.56579605970774   -7.71780e-01   1.19494e-03 ADIIS/DIIS
   @DF-RKS iter   4:  -272.56812527120451   -2.32921e-03   8.06877e-04 ADIIS/DIIS
   @DF-RKS iter   5:  -272.56997195339898   -1.84668e-03   2.43544e-04 ADIIS/DIIS
   @DF-RKS iter   6:  -272.57016011313493   -1.88160e-04   6.23018e-05 DIIS
   @DF-RKS iter   7:  -272.57017305229613   -1.29392e-05   7.02040e-06 DIIS
   @DF-RKS iter   8:  -272.57017317536850   -1.23072e-07   3.44140e-06 DIIS
   @DF-RKS iter   9:  -272.57017321180211   -3.64336e-08   3.10491e-07 DIIS
   @DF-RKS iter  10:  -272.57017321211202   -3.09910e-10   5.88758e-08 DIIS
  Energy and wave function converged.


  ==> Post-Iterations <==

   Electrons on quadrature grid:
      Ntotal   =   52.0000546192 ; deviation = 5.462e-05 

    Orbital Energies [Eh]
    ---------------------

    Doubly Occupied:                                                      

       1A1   -10.183060     1B2   -10.181207     2A1   -10.181196  
       2B2   -10.177010     3A1   -10.176999     4A1   -10.168430  
       3B2   -10.168328     5A1    -0.850237     4B2    -0.754218  
       6A1    -0.711377     7A1    -0.682383     5B2    -0.630228  
       8A1    -0.530033     6B2    -0.509576     9A1    -0.473938  
       1B1    -0.448413    10A1    -0.413153     7B2    -0.412411  
       1A2    -0.410003     2B1    -0.388391     8B2    -0.379279  
      11A1    -0.350783    12A1    -0.348578     9B2    -0.330921  
       3B1    -0.292454     2A2    -0.201930  

    Virtual:                                                              

       4B1    -0.012020    13A1     0.061324    10B2     0.077448  
       3A2     0.086990    14A1     0.098455    15A1     0.118400  
      11B2     0.124100     5B1     0.134834     4A2     0.143508  
      16A1     0.147103    12B2     0.162341     6B1     0.162941  
      13B2     0.203209    17A1     0.229456    14B2     0.253059  
      18A1     0.277018    15B2     0.331282    19A1     0.335080  
      20A1     0.384557    16B2     0.421871     5A2     0.450789  
      21A1     0.456901    17B2     0.460269     7B1     0.462213  
      22A1     0.462520    18B2     0.484885     8B1     0.498797  
      23A1     0.498873    24A1     0.562681    19B2     0.588563  
       9B1     0.590789     6A2     0.613204    25A1     0.635215  
      20B2     0.639953     7A2     0.646833    26A1     0.656416  
      21B2     0.658165    10B1     0.668387    27A1     0.676933  
      28A1     0.682117    22B2     0.684145    11B1     0.701123  
       8A2     0.701468    23B2     0.707381    29A1     0.719997  
      24B2     0.748341    30A1     0.755253    12B1     0.762397  
      25B2     0.803741    31A1     0.841715    26B2     0.919887  
      27B2     0.970429    32A1     0.991954    33A1     1.014732  
       9A2     1.145352    13B1     1.149622    28B2     1.154628  
      34A1     1.168874    10A2     1.242996    14B1     1.267587  
      29B2     1.310515    30B2     1.475327    11A2     1.509205  
      15B1     1.510184    35A1     1.531539    12A2     1.543094  
      16B1     1.543472    17B1     1.574670    13A2     1.599456  
      36A1     1.599529    37A1     1.696166    14A2     1.728892  
      31B2     1.732202    38A1     1.736760    32B2     1.759958  
      33B2     1.772013    39A1     1.773826    18B1     1.788468  
      34B2     1.816598    15A2     1.816913    40A1     1.845391  
      19B1     1.848757    41A1     1.866506    42A1     1.886229  
      20B1     1.899928    21B1     1.983715    35B2     2.017095  
      16A2     2.052130    36B2     2.060248    43A1     2.075876  
      37B2     2.103112    44A1     2.141242    45A1     2.179312  
      38B2     2.189476    22B1     2.252986    23B1     2.269824  
      17A2     2.290956    39B2     2.309019    46A1     2.351000  
      18A2     2.388604    47A1     2.392591    40B2     2.435508  
      41B2     2.490529    48A1     2.494363    19A2     2.587057  
      24B1     2.606199    49A1     2.645921    20A2     2.675233  
      42B2     2.717808    50A1     2.734242    43B2     2.762673  
      44B2     2.773528    51A1     2.781741    52A1     2.894722  
      25B1     2.912278    45B2     2.936384    21A2     2.948824  
      26B1     3.009486    53A1     3.042017    54A1     3.127285  
      46B2     3.197199    47B2     3.414028  

    Final Occupation by Irrep:
             A1    A2    B1    B2 
    DOCC [    12,    2,    3,    9 ]
    NA   [    12,    2,    3,    9 ]
    NB   [    12,    2,    3,    9 ]

  @DF-RKS Final Energy:  -272.57017321211202

   => Energetics <=

    Nuclear Repulsion Energy =            283.3093174050758876
    One-Electron Energy =                -926.7387818429392610
    Two-Electron Energy =                 404.6313067776310959
    DFT Exchange-Correlation Energy =     -33.7469100526830061
    Empirical Dispersion Energy =          -0.0251054991968058
    VV10 Nonlocal Energy =                  0.0000000000000000
    Total Energy =                       -272.5701732121120244

Computation Completed


Properties will be evaluated at   0.000000,   0.000000,   0.000000 [a0]

Properties computed using the SCF density matrix


 Multipole Moments:

 ------------------------------------------------------------------------------------
     Multipole            Electronic (a.u.)      Nuclear  (a.u.)        Total (a.u.)
 ------------------------------------------------------------------------------------

 L = 1.  Multiply by 2.5417464519 to convert [e a0] to [Debye]
 Dipole X            :          0.0000000            0.0000000            0.0000000
 Dipole Y            :          0.0000000            0.0000000            0.0000000
 Dipole Z            :          0.3095669            0.0000302            0.3095971
 Magnitude           :                                                    0.3095971

 ------------------------------------------------------------------------------------

*** tstop() called on choehoyun-ui-MacBookAir.local at Mon Aug 10 18:34:34 2026
Module time:
	user time   =      21.80 seconds =       0.36 minutes
	system time =       0.47 seconds =       0.01 minutes
	total time  =          4 seconds =       0.07 minutes
Total time:
	user time   =      21.80 seconds =       0.36 minutes
	system time =       0.47 seconds =       0.01 minutes
	total time  =          4 seconds =       0.07 minutes

    Psi4 stopped on: Monday, 10 August 2026 06:34PM
    Psi4 wall time for execution: 0:00:04.00

*** Psi4 exiting successfully. Buy a developer a beer!
