
    -----------------------------------------------------------------------
          Psi4: An Open-Source Ab Initio Electronic Structure Package
                               Psi4 1.11 release

                         Git: Rev {} zzzzzzz 


    D. G. A. Smith, L. A. Burns, A. C. Simmonett, R. M. Parrish,
    M. C. Schieber, R. Galvelis, P. Kraus, H. Kruse, R. Di Remigio,
    A. Alenaizan, A. M. James, S. Lehtola, J. P. Misiewicz, M. Scheurer,
    R. A. Shaw, J. B. Schriber, Y. Xie, Z. L. Glick, D. A. Sirianni,
    J. S. O'Brien, J. M. Waldrop, A. Kumar, E. G. Hohenstein,
    B. P. Pritchard, B. R. Brooks, H. F. Schaefer III, A. Yu. Sokolov,
    K. Patkowski, A. E. DePrince III, U. Bozkaya, R. A. King,
    F. A. Evangelista, J. M. Turney, T. D. Crawford, C. D. Sherrill,
    J. Chem. Phys. 152(18) 184108 (2020). https://doi.org/10.1063/5.0006002

                            Additional Code Authors
    E. T. Seidl, C. L. Janssen, E. F. Valeev, M. L. Leininger,
    J. F. Gonthier, R. M. Richard, H. R. McAlexander, M. Saitow, X. Wang,
    P. Verma, M. H. Lechner, A. Jiang, S. Behnle, A. G. Heide,
    M. F. Herbst, D. L. Poole, T. Győri, E. C. Mitchell, J. P. Pederson,
    and A. M. Wallace

             Previous Authors, Complete List of Code Contributors,
                       and Citations for Specific Modules
    https://github.com/psi4/psi4/blob/master/codemeta.json
    https://github.com/psi4/psi4/graphs/contributors
    https://psicode.org/psi4manual/master/introduction.html#citing-psifour

    -----------------------------------------------------------------------


    Psi4 started on: Monday, 10 August 2026 06:35PM

    Process ID: 75628
    Host:       choehoyun-ui-MacBookAir.local
    PSIDATADIR: /Users/hoyoun/micromamba/envs/psi4env/share/psi4
    Memory:     500.0 MiB
    Threads:    8
    Addons:     a̶d̶c̶c̶, a̶m̶b̶i̶t̶, b̶s̶e̶, c̶c̶t̶3̶, c̶f̶o̶u̶r̶, c̶h̶e̶m̶p̶s̶2̶, c̶p̶p̶e̶, d̶d̶x̶, dftd3,
                d̶f̶t̶d̶4̶, dkh, ecpint, einsums, f̶o̶r̶t̶e̶, gauxc, g̶c̶p̶, g̶d̶m̶a̶,
                g̶e̶o̶m̶e̶t̶r̶i̶c̶, g̶p̶u̶_̶d̶f̶c̶c̶, i̶n̶t̶e̶g̶r̶a̶t̶o̶r̶x̶x̶, i̶p̶i̶,
                l̶i̶b̶e̶f̶p̶, m̶d̶i̶, m̶p̶2̶d̶, m̶r̶c̶c̶, ooo, o̶p̶e̶n̶f̶e̶r̶m̶i̶o̶n̶p̶s̶i̶4̶,
                pcmsolver, p̶s̶i̶4̶f̶o̶c̶k̶c̶i̶, p̶s̶i̶x̶a̶s̶, p̶y̶e̶i̶n̶s̶u̶m̶s̶, r̶e̶s̶p̶,
                s̶i̶m̶i̶n̶t̶, s̶n̶s̶m̶p̶2̶, v̶2̶r̶d̶m̶_̶c̶a̶s̶s̶c̶f̶

  ==> Input File <==

--------------------------------------------------------------------------
memory 3 GB
molecule mol {
0 1
N 0.00000000000000 1.40201909556377 0.00000000000000
C -1.13133170957306 0.69633208288941 0.00000000000000
C -1.13133170957306 -0.69633208288941 0.00000000000000
N 0.00000000000000 -1.40201909556377 0.00000000000000
C 1.13133170957306 -0.69633208288941 0.00000000000000
C 1.13133170957306 0.69633208288941 0.00000000000000
H -2.06197283262336 1.25418593016145 0.00000000000000
H -2.06197283262336 -1.25418593016145 0.00000000000000
H 2.06197283262336 -1.25418593016145 0.00000000000000
H 2.06197283262336 1.25418593016145 0.00000000000000
units angstrom
no_reorient
no_com
}
set basis def2-SVP
set scf_type df
set freeze_core true
set e_convergence 8
energy('b3lyp-d3bj')
--------------------------------------------------------------------------

  Memory set to   2.794 GiB by Python driver.

Scratch directory: /Users/hoyoun/Documents/Yonsei_AX_Camp/(진짜_이게_최종)/calibration/dft_work/_scratch/E20/
   => Libint2 <=

    Primary   basis highest AM E, G, H:  7, 6, 3
    Auxiliary basis highest AM E, G, H:  7, 7, 4
    Onebody   basis highest AM E, G, H:  -, -, -
    Solid Harmonics ordering:            Gaussian

*** tstart() called on choehoyun-ui-MacBookAir.local
*** at Mon Aug 10 18:35:41 2026

   => Loading Basis Set <=

    Name: DEF2-SVP
    Role: ORBITAL
    Keyword: BASIS
    atoms 1, 4     entry N          line   110 file /Users/hoyoun/micromamba/envs/psi4env/share/psi4/basis/def2-svp.gbs 
    atoms 2-3, 5-6 entry C          line    90 file /Users/hoyoun/micromamba/envs/psi4env/share/psi4/basis/def2-svp.gbs 
    atoms 7-10     entry H          line    15 file /Users/hoyoun/micromamba/envs/psi4env/share/psi4/basis/def2-svp.gbs 

   => B3LYP-D3(BJ): Empirical Dispersion <=

    Grimme's -D3 (BJ-damping) Dispersion Correction
    Grimme S.; Ehrlich S.; Goerigk L. (2011), J. Comput. Chem., 32: 1456

        s6 =       1.000000
        s8 =       1.988900
        a1 =       0.398100
        a2 =       4.421100


         ---------------------------------------------------------
                                   SCF
               by Justin Turney, Rob Parrish, Andy Simmonett
                          and Daniel G. A. Smith
                              RKS Reference
                        8 Threads,   2861 MiB Core
         ---------------------------------------------------------

  ==> Geometry <==

    Molecular point group: d2h
    Full point group: D2h

    Geometry (in Angstrom), charge = 0, multiplicity = 1:

       Center              X                  Y                   Z               Mass       
    ------------   -----------------  -----------------  -----------------  -----------------
         N           -0.000000000000     1.402019095564     0.000000000000    14.003074004430
         C           -1.131331709573     0.696332082889     0.000000000000    12.000000000000
         C           -1.131331709573    -0.696332082889     0.000000000000    12.000000000000
         N            0.000000000000    -1.402019095564     0.000000000000    14.003074004430
         C            1.131331709573    -0.696332082889     0.000000000000    12.000000000000
         C            1.131331709573     0.696332082889     0.000000000000    12.000000000000
         H           -2.061972832623     1.254185930161     0.000000000000     1.007825032230
         H           -2.061972832623    -1.254185930161     0.000000000000     1.007825032230
         H            2.061972832623    -1.254185930161     0.000000000000     1.007825032230
         H            2.061972832623     1.254185930161     0.000000000000     1.007825032230

  Running in d2h symmetry.

  Rotational constants: A =      0.21454  B =      0.19911  C =      0.10327 [cm^-1]
  Rotational constants: A =   6431.74219  B =   5969.10298  C =   3095.89636 [MHz]
  Nuclear repulsion =  209.116162305285087

  Charge       = 0
  Multiplicity = 1
  Electrons    = 42
  Nalpha       = 21
  Nbeta        = 21

  ==> Algorithm <==

  SCF Algorithm Type is DF.
  DIIS enabled.
  MOM disabled.
  Fractional occupation disabled.
  Guess Type is SAD.
  Energy threshold   = 1.00e-08
  Density threshold  = 1.00e-06
  Integral threshold = 1.00e-12

  ==> Primary Basis <==

  Basis Set: DEF2-SVP
    Blend: DEF2-SVP
    Number of shells: 48
    Number of basis functions: 104
    Number of Cartesian functions: 110
    Spherical Harmonics?: true
    Max angular momentum: 2

  ==> DFT Potential <==

   => LibXC <=

    Version 7.1.2
    S. Lehtola, C. Steigemann, M. J. T. Oliveira, and M. A. L. Marques,  SoftwareX 7, 1–5 (2018) (10.1016/j.softx.2017.11.002)

   => Composite Functional: B3LYP-D3BJ2B <= 

    B3LYP-d3bj2b Hyb-GGA Exchange-Correlation Functional

    P. J. Stephens, F. J. Devlin, C. F. Chabalowski, and M. J. Frisch,  J. Phys. Chem. 98, 11623 (1994) (10.1021/j100096a001)

    Deriv               =              1
    GGA                 =           TRUE
    Meta                =          FALSE

    Exchange Hybrid     =           TRUE
    MP2 Hybrid          =          FALSE

   => Exchange Functionals <=

    0.0800   Slater exchange
    0.7200         Becke 88

   => Exact (HF) Exchange <=

    0.2000               HF 

   => Correlation Functionals <=

    0.1900   Vosko, Wilk & Nusair (VWN5_RPA)
    0.8100   Lee, Yang & Parr

   => LibXC Density Thresholds  <==

    XC_HYB_GGA_XC_B3LYP:  1.00E-15 

   => Molecular Quadrature <=

    Radial Scheme          =       TREUTLER
    Pruning Scheme         =           NONE
    Nuclear Scheme         =       TREUTLER

    Blocking Scheme        =         OCTREE
    BS radius alpha        =              1
    Pruning alpha          =              1
    Radial Points          =             75
    Spherical Points       =            302
    Total Points           =         211650
    Total Blocks           =           1660
    Max Points             =            256
    Max Functions          =            103
    Weights Tolerance      =       1.00E-15

   => Loading Basis Set <=

    Name: (DEF2-SVP AUX)
    Role: JKFIT
    Keyword: DF_BASIS_SCF
    atoms 1, 4     entry N          line   258 file /Users/hoyoun/micromamba/envs/psi4env/share/psi4/basis/def2-universal-jkfit.gbs 
    atoms 2-3, 5-6 entry C          line   198 file /Users/hoyoun/micromamba/envs/psi4env/share/psi4/basis/def2-universal-jkfit.gbs 
    atoms 7-10     entry H          line    18 file /Users/hoyoun/micromamba/envs/psi4env/share/psi4/basis/def2-universal-jkfit.gbs 

  ==> Integral Setup <==

  DFHelper Memory: AOs need 0.047 GiB; user supplied 1.566 GiB. 
  SCF_SUBTYPE=INCORE selected. In-core MEM_DF algorithm will be used.
  Using in-core AOs.

  ==> MemDFJK: Density-Fitted J/K Matrices <==

    J tasked:                   Yes
    K tasked:                   Yes
    wK tasked:                   No
    OpenMP threads:               8
    Memory [MiB]:              1603
    Algorithm:                 Core
    Schwarz Cutoff:           1E-12
    Mask sparsity (%):       0.7951
    Fitting Condition:        1E-10

   => Auxiliary Basis Set <=

  Basis Set: (DEF2-SVP AUX)
    Blend: DEF2-UNIVERSAL-JKFIT
    Number of shells: 174
    Number of basis functions: 526
    Number of Cartesian functions: 622
    Spherical Harmonics?: true
    Max angular momentum: 4

  Cached 100.0% of DFT collocation blocks in 0.529 [GiB].

  Minimum eigenvalue in the overlap matrix is 2.9890183190E-03.
  Reciprocal condition number of the overlap matrix is 5.9161261410E-04.
    Using symmetric orthogonalization.

  ==> Pre-Iterations <==

  SCF Guess: Superposition of Atomic Densities via on-the-fly atomic UHF (no occupation information).

   -------------------------
    Irrep   Nso     Nmo    
   -------------------------
     Ag        21      21 
     B1g       17      17 
     B2g        6       6 
     B3g        8       8 
     Au         6       6 
     B1u        8       8 
     B2u       21      21 
     B3u       17      17 
   -------------------------
    Total     104     104
   -------------------------

  ==> Iterations <==

                           Total Energy        Delta E     RMS |[F,P]|

   @DF-RKS iter SAD:  -263.82836599203995   -2.63828e+02   0.00000e+00 
   @DF-RKS iter   1:  -263.90771905475469   -7.93531e-02   1.54289e-02 ADIIS/DIIS
   @DF-RKS iter   2:  -263.91492606905450   -7.20701e-03   1.60845e-02 ADIIS/DIIS
   @DF-RKS iter   3:  -264.13140655188806   -2.16480e-01   2.91289e-03 ADIIS/DIIS
   @DF-RKS iter   4:  -264.13687004738438   -5.46350e-03   1.06807e-03 ADIIS/DIIS
   @DF-RKS iter   5:  -264.13766713104064   -7.97084e-04   1.07035e-04 ADIIS/DIIS
   @DF-RKS iter   6:  -264.13767503006272   -7.89902e-06   7.70386e-06 DIIS
   @DF-RKS iter   7:  -264.13767508611653   -5.60538e-08   6.41543e-07 DIIS
   @DF-RKS iter   8:  -264.13767508645839   -3.41856e-10   1.49867e-07 DIIS
  Energy and wave function converged.


  ==> Post-Iterations <==

   Electrons on quadrature grid:
      Ntotal   =   42.0000239954 ; deviation = 2.400e-05 

    Orbital Energies [Eh]
    ---------------------

    Doubly Occupied:                                                      

       1B2u  -14.346114     1Ag   -14.345980     1B3u  -10.237431  
       2Ag   -10.237386     2B2u  -10.237059     1B1g  -10.237020  
       3Ag    -0.984332     3B2u   -0.908014     2B3u   -0.779056  
       4Ag    -0.661502     2B1g   -0.660206     5Ag    -0.533829  
       3B3u   -0.527157     4B2u   -0.492192     4B3u   -0.446889  
       1B1u   -0.435826     3B1g   -0.397622     1B3g   -0.339582  
       5B2u   -0.312924     1B2g   -0.286966     6Ag    -0.254139  

    Virtual:                                                              

       2B1u   -0.058135     1Au    -0.034004     7Ag     0.076298  
       5B3u    0.089202     2B3g    0.119690     6B2u    0.120384  
       4B1g    0.129592     8Ag     0.162854     6B3u    0.266350  
       7B2u    0.296390     5B1g    0.303701     8B2u    0.331272  
       9Ag     0.352985     7B3u    0.388366     6B1g    0.403463  
       3B1u    0.444947     8B3u    0.462002    10Ag     0.493716  
       2B2g    0.506915     3B3g    0.531806    11Ag     0.571247  
       2Au     0.579445     9B2u    0.582291     7B1g    0.603873  
       9B3u    0.621856     8B1g    0.658905    10B2u    0.686339  
      11B2u    0.704002    12Ag     0.715377     9B1g    0.735265  
       4B1u    0.827697    13Ag     0.831086    12B2u    0.887000  
       4B3g    0.901621    10B3u    0.902526    13B2u    0.978754  
      14Ag     1.079920    10B1g    1.108533    11B3u    1.166434  
       5B1u    1.168543     3B2g    1.221947     4B2g    1.309285  
      11B1g    1.347945    14B2u    1.348147     3Au     1.352263  
       5B3g    1.446328     6B1u    1.539392    12B3u    1.628739  
      15Ag     1.653360    16Ag     1.726154    13B3u    1.742907  
      12B1g    1.743944    15B2u    1.759594    17Ag     1.797460  
       4Au     1.839923    16B2u    1.859328     7B1u    1.914016  
       6B3g    1.922311     5B2g    1.972459    14B3u    2.048187  
      13B1g    2.061657    18Ag     2.080115    15B3u    2.146968  
      17B2u    2.270872     7B3g    2.336933     5Au     2.340334  
      18B2u    2.407974     8B1u    2.508259    14B1g    2.523413  
      19Ag     2.541812     6B2g    2.603650     8B3g    2.658732  
      15B1g    2.662269    16B3u    2.705147    20Ag     2.847548  
       6Au     2.867535    19B2u    2.903013    20B2u    3.016983  
      21Ag     3.051424    16B1g    3.108926    17B3u    3.135950  
      17B1g    3.375731    21B2u    3.647869  

    Final Occupation by Irrep:
             Ag   B1g   B2g   B3g    Au   B1u   B2u   B3u 
    DOCC [     6,    3,    1,    1,    0,    1,    5,    4 ]
    NA   [     6,    3,    1,    1,    0,    1,    5,    4 ]
    NB   [     6,    3,    1,    1,    0,    1,    5,    4 ]

  @DF-RKS Final Energy:  -264.13767508645839

   => Energetics <=

    Nuclear Repulsion Energy =            209.1161623052850871
    One-Electron Energy =                -769.6520605179583754
    Two-Electron Energy =                 326.3228730982606294
    DFT Exchange-Correlation Energy =     -29.9092256843127942
    Empirical Dispersion Energy =          -0.0154242877328973
    VV10 Nonlocal Energy =                  0.0000000000000000
    Total Energy =                       -264.1376750864583300

Computation Completed


Properties will be evaluated at   0.000000,   0.000000,   0.000000 [a0]

Properties computed using the SCF density matrix


 Multipole Moments:

 ------------------------------------------------------------------------------------
     Multipole            Electronic (a.u.)      Nuclear  (a.u.)        Total (a.u.)
 ------------------------------------------------------------------------------------

 L = 1.  Multiply by 2.5417464519 to convert [e a0] to [Debye]
 Dipole X            :          0.0000000            0.0000000            0.0000000
 Dipole Y            :          0.0000000            0.0000000            0.0000000
 Dipole Z            :          0.0000000            0.0000000            0.0000000
 Magnitude           :                                                    0.0000000

 ------------------------------------------------------------------------------------

*** tstop() called on choehoyun-ui-MacBookAir.local at Mon Aug 10 18:35:42 2026
Module time:
	user time   =       5.43 seconds =       0.09 minutes
	system time =       0.21 seconds =       0.00 minutes
	total time  =          1 seconds =       0.02 minutes
Total time:
	user time   =       5.43 seconds =       0.09 minutes
	system time =       0.21 seconds =       0.00 minutes
	total time  =          1 seconds =       0.02 minutes

    Psi4 stopped on: Monday, 10 August 2026 06:35PM
    Psi4 wall time for execution: 0:00:01.37

*** Psi4 exiting successfully. Buy a developer a beer!
