
    -----------------------------------------------------------------------
          Psi4: An Open-Source Ab Initio Electronic Structure Package
                               Psi4 1.11 release

                         Git: Rev {} zzzzzzz 


    D. G. A. Smith, L. A. Burns, A. C. Simmonett, R. M. Parrish,
    M. C. Schieber, R. Galvelis, P. Kraus, H. Kruse, R. Di Remigio,
    A. Alenaizan, A. M. James, S. Lehtola, J. P. Misiewicz, M. Scheurer,
    R. A. Shaw, J. B. Schriber, Y. Xie, Z. L. Glick, D. A. Sirianni,
    J. S. O'Brien, J. M. Waldrop, A. Kumar, E. G. Hohenstein,
    B. P. Pritchard, B. R. Brooks, H. F. Schaefer III, A. Yu. Sokolov,
    K. Patkowski, A. E. DePrince III, U. Bozkaya, R. A. King,
    F. A. Evangelista, J. M. Turney, T. D. Crawford, C. D. Sherrill,
    J. Chem. Phys. 152(18) 184108 (2020). https://doi.org/10.1063/5.0006002

                            Additional Code Authors
    E. T. Seidl, C. L. Janssen, E. F. Valeev, M. L. Leininger,
    J. F. Gonthier, R. M. Richard, H. R. McAlexander, M. Saitow, X. Wang,
    P. Verma, M. H. Lechner, A. Jiang, S. Behnle, A. G. Heide,
    M. F. Herbst, D. L. Poole, T. Győri, E. C. Mitchell, J. P. Pederson,
    and A. M. Wallace

             Previous Authors, Complete List of Code Contributors,
                       and Citations for Specific Modules
    https://github.com/psi4/psi4/blob/master/codemeta.json
    https://github.com/psi4/psi4/graphs/contributors
    https://psicode.org/psi4manual/master/introduction.html#citing-psifour

    -----------------------------------------------------------------------


    Psi4 started on: Monday, 10 August 2026 06:30PM

    Process ID: 75056
    Host:       choehoyun-ui-MacBookAir.local
    PSIDATADIR: /Users/hoyoun/micromamba/envs/psi4env/share/psi4
    Memory:     500.0 MiB
    Threads:    8
    Addons:     a̶d̶c̶c̶, a̶m̶b̶i̶t̶, b̶s̶e̶, c̶c̶t̶3̶, c̶f̶o̶u̶r̶, c̶h̶e̶m̶p̶s̶2̶, c̶p̶p̶e̶, d̶d̶x̶, dftd3,
                d̶f̶t̶d̶4̶, dkh, ecpint, einsums, f̶o̶r̶t̶e̶, gauxc, g̶c̶p̶, g̶d̶m̶a̶,
                g̶e̶o̶m̶e̶t̶r̶i̶c̶, g̶p̶u̶_̶d̶f̶c̶c̶, i̶n̶t̶e̶g̶r̶a̶t̶o̶r̶x̶x̶, i̶p̶i̶,
                l̶i̶b̶e̶f̶p̶, m̶d̶i̶, m̶p̶2̶d̶, m̶r̶c̶c̶, ooo, o̶p̶e̶n̶f̶e̶r̶m̶i̶o̶n̶p̶s̶i̶4̶,
                pcmsolver, p̶s̶i̶4̶f̶o̶c̶k̶c̶i̶, p̶s̶i̶x̶a̶s̶, p̶y̶e̶i̶n̶s̶u̶m̶s̶, r̶e̶s̶p̶,
                s̶i̶m̶i̶n̶t̶, s̶n̶s̶m̶p̶2̶, v̶2̶r̶d̶m̶_̶c̶a̶s̶s̶c̶f̶

  ==> Input File <==

--------------------------------------------------------------------------
memory 3 GB
molecule mol {
0 1
S -2.36730958154044 0.15912571119323 0.00000000000000
S -1.42716763208047 -0.51183797277988 -1.72709285093132
S -0.03391896282168 0.93067372852139 -2.15244984909683
S 1.85110283827239 0.02650546210797 -1.71991311101037
S 1.58727709479994 -1.04980814689221 0.00000000000000
S 1.85110283827239 0.02650546210797 1.71991311101037
S -0.03391896282168 0.93067372852139 2.15244984909683
S -1.42716763208047 -0.51183797277988 1.72709285093132
units angstrom
no_reorient
no_com
}
set basis def2-SVP
set scf_type df
set freeze_core true
set e_convergence 8
energy('b3lyp-d3bj')
--------------------------------------------------------------------------

  Memory set to   2.794 GiB by Python driver.

Scratch directory: /Users/hoyoun/Documents/Yonsei_AX_Camp/(진짜_이게_최종)/calibration/dft_work/_scratch/S8_2/
   => Libint2 <=

    Primary   basis highest AM E, G, H:  7, 6, 3
    Auxiliary basis highest AM E, G, H:  7, 7, 4
    Onebody   basis highest AM E, G, H:  -, -, -
    Solid Harmonics ordering:            Gaussian

*** tstart() called on choehoyun-ui-MacBookAir.local
*** at Mon Aug 10 18:30:59 2026

   => Loading Basis Set <=

    Name: DEF2-SVP
    Role: ORBITAL
    Keyword: BASIS
    atoms 1-8 entry S          line   328 file /Users/hoyoun/micromamba/envs/psi4env/share/psi4/basis/def2-svp.gbs 

   => B3LYP-D3(BJ): Empirical Dispersion <=

    Grimme's -D3 (BJ-damping) Dispersion Correction
    Grimme S.; Ehrlich S.; Goerigk L. (2011), J. Comput. Chem., 32: 1456

        s6 =       1.000000
        s8 =       1.988900
        a1 =       0.398100
        a2 =       4.421100


         ---------------------------------------------------------
                                   SCF
               by Justin Turney, Rob Parrish, Andy Simmonett
                          and Daniel G. A. Smith
                              RKS Reference
                        8 Threads,   2861 MiB Core
         ---------------------------------------------------------

  ==> Geometry <==

    Molecular point group: cs
    Full point group: Cs

    Geometry (in Angstrom), charge = 0, multiplicity = 1:

       Center              X                  Y                   Z               Mass       
    ------------   -----------------  -----------------  -----------------  -----------------
         S           -2.367309581540     0.159125711193     0.000000000000    31.972071174400
         S           -1.427167632080    -0.511837972780    -1.727092850931    31.972071174400
         S           -0.033918962822     0.930673728521    -2.152449849097    31.972071174400
         S            1.851102838272     0.026505462108    -1.719913111010    31.972071174400
         S            1.587277094800    -1.049808146892     0.000000000000    31.972071174400
         S            1.851102838272     0.026505462108     1.719913111010    31.972071174400
         S           -0.033918962822     0.930673728521     2.152449849097    31.972071174400
         S           -1.427167632080    -0.511837972780     1.727092850931    31.972071174400

  Running in cs symmetry.

  Rotational constants: A =      0.02350  B =      0.02151  C =      0.01311 [cm^-1]
  Rotational constants: A =    704.47689  B =    644.81101  C =    393.01318 [MHz]
  Nuclear repulsion = 1226.944983620444646

  Charge       = 0
  Multiplicity = 1
  Electrons    = 128
  Nalpha       = 64
  Nbeta        = 64

  ==> Algorithm <==

  SCF Algorithm Type is DF.
  DIIS enabled.
  MOM disabled.
  Fractional occupation disabled.
  Guess Type is SAD.
  Energy threshold   = 1.00e-08
  Density threshold  = 1.00e-06
  Integral threshold = 1.00e-12

  ==> Primary Basis <==

  Basis Set: DEF2-SVP
    Blend: DEF2-SVP
    Number of shells: 64
    Number of basis functions: 144
    Number of Cartesian functions: 152
    Spherical Harmonics?: true
    Max angular momentum: 2

  ==> DFT Potential <==

   => LibXC <=

    Version 7.1.2
    S. Lehtola, C. Steigemann, M. J. T. Oliveira, and M. A. L. Marques,  SoftwareX 7, 1–5 (2018) (10.1016/j.softx.2017.11.002)

   => Composite Functional: B3LYP-D3BJ2B <= 

    B3LYP-d3bj2b Hyb-GGA Exchange-Correlation Functional

    P. J. Stephens, F. J. Devlin, C. F. Chabalowski, and M. J. Frisch,  J. Phys. Chem. 98, 11623 (1994) (10.1021/j100096a001)

    Deriv               =              1
    GGA                 =           TRUE
    Meta                =          FALSE

    Exchange Hybrid     =           TRUE
    MP2 Hybrid          =          FALSE

   => Exchange Functionals <=

    0.0800   Slater exchange
    0.7200         Becke 88

   => Exact (HF) Exchange <=

    0.2000               HF 

   => Correlation Functionals <=

    0.1900   Vosko, Wilk & Nusair (VWN5_RPA)
    0.8100   Lee, Yang & Parr

   => LibXC Density Thresholds  <==

    XC_HYB_GGA_XC_B3LYP:  1.00E-15 

   => Molecular Quadrature <=

    Radial Scheme          =       TREUTLER
    Pruning Scheme         =           NONE
    Nuclear Scheme         =       TREUTLER

    Blocking Scheme        =         OCTREE
    BS radius alpha        =              1
    Pruning alpha          =              1
    Radial Points          =             75
    Spherical Points       =            302
    Total Points           =         159490
    Total Blocks           =           1281
    Max Points             =            256
    Max Functions          =            121
    Weights Tolerance      =       1.00E-15

   => Loading Basis Set <=

    Name: (DEF2-SVP AUX)
    Role: JKFIT
    Keyword: DF_BASIS_SCF
    atoms 1-8 entry S          line   903 file /Users/hoyoun/micromamba/envs/psi4env/share/psi4/basis/def2-universal-jkfit.gbs 

  ==> Integral Setup <==

  DFHelper Memory: AOs need 0.153 GiB; user supplied 1.688 GiB. 
  SCF_SUBTYPE=INCORE selected. In-core MEM_DF algorithm will be used.
  Using in-core AOs.

  ==> MemDFJK: Density-Fitted J/K Matrices <==

    J tasked:                   Yes
    K tasked:                   Yes
    wK tasked:                   No
    OpenMP threads:               8
    Memory [MiB]:              1728
    Algorithm:                 Core
    Schwarz Cutoff:           1E-12
    Mask sparsity (%):      11.7091
    Fitting Condition:        1E-10

   => Auxiliary Basis Set <=

  Basis Set: (DEF2-SVP AUX)
    Blend: DEF2-UNIVERSAL-JKFIT
    Number of shells: 304
    Number of basis functions: 1024
    Number of Cartesian functions: 1240
    Spherical Harmonics?: true
    Max angular momentum: 4

  Cached 100.0% of DFT collocation blocks in 0.407 [GiB].

  Minimum eigenvalue in the overlap matrix is 1.4671660673E-02.
  Reciprocal condition number of the overlap matrix is 4.1726004224E-03.
    Using symmetric orthogonalization.

  ==> Pre-Iterations <==

  SCF Guess: Superposition of Atomic Densities via on-the-fly atomic UHF (no occupation information).

   -------------------------
    Irrep   Nso     Nmo    
   -------------------------
     A'        80      80 
     A"        64      64 
   -------------------------
    Total     144     144
   -------------------------

  ==> Iterations <==

                           Total Energy        Delta E     RMS |[F,P]|

   @DF-RKS iter SAD: -3184.74140544943430   -3.18474e+03   0.00000e+00 
   @DF-RKS iter   1: -3184.66781756289402    7.35879e-02   3.20710e-03 ADIIS/DIIS
   @DF-RKS iter   2: -3184.70801350221109   -4.01959e-02   1.47254e-03 ADIIS/DIIS
   @DF-RKS iter   3: -3184.71728074899238   -9.26725e-03   5.79976e-04 ADIIS/DIIS
   @DF-RKS iter   4: -3184.71946686724823   -2.18612e-03   1.01798e-04 ADIIS/DIIS
   @DF-RKS iter   5: -3184.71952508535969   -5.82181e-05   4.44598e-05 DIIS
   @DF-RKS iter   6: -3184.71953730844234   -1.22231e-05   1.34637e-05 DIIS
   @DF-RKS iter   7: -3184.71953849726378   -1.18882e-06   2.55259e-06 DIIS
   @DF-RKS iter   8: -3184.71953853884315   -4.15794e-08   6.01616e-07 DIIS
   @DF-RKS iter   9: -3184.71953854118556   -2.34240e-09   2.36742e-07 DIIS
  Energy and wave function converged.


  ==> Post-Iterations <==

   Electrons on quadrature grid:
      Ntotal   =  128.0000271489 ; deviation = 2.715e-05 

    Orbital Energies [Eh]
    ---------------------

    Doubly Occupied:                                                      

       1Ap   -88.910606     1App  -88.908962     2Ap   -88.908918  
       3Ap   -88.901960     2App  -88.898450     4Ap   -88.898425  
       3App  -88.897911     5Ap   -88.897853     6Ap    -8.005256  
       4App   -8.003968     7Ap    -8.003930     8Ap    -7.997444  
       5App   -7.994036     9Ap    -7.994016     6App   -7.993755  
      10Ap    -7.993704     7App   -5.975091     8App   -5.973270  
      11Ap    -5.973258    12Ap    -5.970058     9App   -5.969357  
      13Ap    -5.969342    10App   -5.967192    14Ap    -5.963678  
      11App   -5.963677    15Ap    -5.963449    12App   -5.963263  
      16Ap    -5.963254    17Ap    -5.962701    13App   -5.962096  
      18Ap    -5.962086    14App   -5.959797    19Ap    -5.959794  
      15App   -5.959408    20Ap    -5.959390    21Ap    -5.955145  
      16App   -5.951381    22Ap    -5.951372    17App   -5.951285  
      23Ap    -5.951270    24Ap    -0.884430    25Ap    -0.850623  
      18App   -0.848326    19App   -0.764285    26Ap    -0.761106  
      20App   -0.654711    27Ap    -0.649169    28Ap    -0.568653  
      21App   -0.485535    29Ap    -0.446084    22App   -0.438735  
      30Ap    -0.416823    31Ap    -0.402495    23App   -0.392863  
      32Ap    -0.384887    24App   -0.370168    25App   -0.325583  
      33Ap    -0.322189    34Ap    -0.297405    26App   -0.289459  
      35Ap    -0.280763    36Ap    -0.274027    37Ap    -0.265047  
      27App   -0.235645  

    Virtual:                                                              

      28App   -0.085865    38Ap    -0.085820    29App   -0.067716  
      39Ap    -0.063638    40Ap    -0.047178    41Ap    -0.028970  
      30App   -0.028414    31App    0.001070    42Ap     0.232811  
      43Ap     0.306878    32App    0.310672    44Ap     0.332783  
      33App    0.352753    34App    0.357164    45Ap     0.369680  
      35App    0.376233    46Ap     0.392041    47Ap     0.416411  
      36App    0.424147    48Ap     0.450137    37App    0.453636  
      49Ap     0.456095    38App    0.462784    50Ap     0.465159  
      39App    0.486346    51Ap     0.490863    52Ap     0.494945  
      40App    0.496629    53Ap     0.501083    41App    0.541656  
      54Ap     0.544938    42App    0.555781    55Ap     0.571890  
      56Ap     0.578961    43App    0.593809    57Ap     0.606927  
      58Ap     0.611748    44App    0.618432    59Ap     0.619629  
      60Ap     0.626098    45App    0.635959    61Ap     0.637110  
      46App    0.643756    62Ap     0.648341    47App    0.673156  
      48App    0.703244    63Ap     0.721135    64Ap     0.729476  
      49App    0.736698    50App    0.742577    65Ap     0.749127  
      66Ap     0.767199    51App    0.775616    52App    0.780618  
      67Ap     0.784895    53App    0.798815    68Ap     0.802555  
      54App    0.834629    69Ap     0.836399    70Ap     0.862630  
      55App    0.872492    71Ap     0.885530    56App    0.908508  
      72Ap     0.924697    73Ap     0.945306    57App    0.962412  
      58App    0.977791    74Ap     0.985561    75Ap     0.993233  
      59App    1.017951    60App    1.046014    76Ap     1.068953  
      77Ap     1.148061    78Ap     1.182875    61App    1.240495  
      62App    1.247015    79Ap     1.260072    63App    1.281471  
      80Ap     1.288586    64App    1.306875  

    Final Occupation by Irrep:
             Ap   App 
    DOCC [    37,   27 ]
    NA   [    37,   27 ]
    NB   [    37,   27 ]

  @DF-RKS Final Energy: -3184.71953854118556

   => Energetics <=

    Nuclear Repulsion Energy =           1226.9449836204446456
    One-Electron Energy =               -6845.6181964860052176
    Two-Electron Energy =                2599.6603300329352351
    DFT Exchange-Correlation Energy =    -165.6616888899848732
    Empirical Dispersion Energy =          -0.0449668185758579
    VV10 Nonlocal Energy =                  0.0000000000000000
    Total Energy =                      -3184.7195385411855568

Computation Completed


Properties will be evaluated at   0.000000,   0.000000,   0.000000 [a0]

Properties computed using the SCF density matrix


 Multipole Moments:

 ------------------------------------------------------------------------------------
     Multipole            Electronic (a.u.)      Nuclear  (a.u.)        Total (a.u.)
 ------------------------------------------------------------------------------------

 L = 1.  Multiply by 2.5417464519 to convert [e a0] to [Debye]
 Dipole X            :         -0.0416441           -0.0000000           -0.0416441
 Dipole Y            :         -0.0637377           -0.0000000           -0.0637377
 Dipole Z            :          0.0000000            0.0000000            0.0000000
 Magnitude           :                                                    0.0761363

 ------------------------------------------------------------------------------------

*** tstop() called on choehoyun-ui-MacBookAir.local at Mon Aug 10 18:31:01 2026
Module time:
	user time   =       8.31 seconds =       0.14 minutes
	system time =       0.28 seconds =       0.00 minutes
	total time  =          2 seconds =       0.03 minutes
Total time:
	user time   =       8.31 seconds =       0.14 minutes
	system time =       0.28 seconds =       0.00 minutes
	total time  =          2 seconds =       0.03 minutes

    Psi4 stopped on: Monday, 10 August 2026 06:31PM
    Psi4 wall time for execution: 0:00:02.00

*** Psi4 exiting successfully. Buy a developer a beer!
