
    -----------------------------------------------------------------------
          Psi4: An Open-Source Ab Initio Electronic Structure Package
                               Psi4 1.11 release

                         Git: Rev {} zzzzzzz 


    D. G. A. Smith, L. A. Burns, A. C. Simmonett, R. M. Parrish,
    M. C. Schieber, R. Galvelis, P. Kraus, H. Kruse, R. Di Remigio,
    A. Alenaizan, A. M. James, S. Lehtola, J. P. Misiewicz, M. Scheurer,
    R. A. Shaw, J. B. Schriber, Y. Xie, Z. L. Glick, D. A. Sirianni,
    J. S. O'Brien, J. M. Waldrop, A. Kumar, E. G. Hohenstein,
    B. P. Pritchard, B. R. Brooks, H. F. Schaefer III, A. Yu. Sokolov,
    K. Patkowski, A. E. DePrince III, U. Bozkaya, R. A. King,
    F. A. Evangelista, J. M. Turney, T. D. Crawford, C. D. Sherrill,
    J. Chem. Phys. 152(18) 184108 (2020). https://doi.org/10.1063/5.0006002

                            Additional Code Authors
    E. T. Seidl, C. L. Janssen, E. F. Valeev, M. L. Leininger,
    J. F. Gonthier, R. M. Richard, H. R. McAlexander, M. Saitow, X. Wang,
    P. Verma, M. H. Lechner, A. Jiang, S. Behnle, A. G. Heide,
    M. F. Herbst, D. L. Poole, T. Győri, E. C. Mitchell, J. P. Pederson,
    and A. M. Wallace

             Previous Authors, Complete List of Code Contributors,
                       and Citations for Specific Modules
    https://github.com/psi4/psi4/blob/master/codemeta.json
    https://github.com/psi4/psi4/graphs/contributors
    https://psicode.org/psi4manual/master/introduction.html#citing-psifour

    -----------------------------------------------------------------------


    Psi4 started on: Monday, 10 August 2026 07:17PM

    Process ID: 78181
    Host:       choehoyun-ui-MacBookAir.local
    PSIDATADIR: /Users/hoyoun/micromamba/envs/psi4env/share/psi4
    Memory:     500.0 MiB
    Threads:    8
    Addons:     a̶d̶c̶c̶, a̶m̶b̶i̶t̶, b̶s̶e̶, c̶c̶t̶3̶, c̶f̶o̶u̶r̶, c̶h̶e̶m̶p̶s̶2̶, c̶p̶p̶e̶, d̶d̶x̶, dftd3,
                d̶f̶t̶d̶4̶, dkh, ecpint, einsums, f̶o̶r̶t̶e̶, gauxc, g̶c̶p̶, g̶d̶m̶a̶,
                g̶e̶o̶m̶e̶t̶r̶i̶c̶, g̶p̶u̶_̶d̶f̶c̶c̶, i̶n̶t̶e̶g̶r̶a̶t̶o̶r̶x̶x̶, i̶p̶i̶,
                l̶i̶b̶e̶f̶p̶, m̶d̶i̶, m̶p̶2̶d̶, m̶r̶c̶c̶, ooo, o̶p̶e̶n̶f̶e̶r̶m̶i̶o̶n̶p̶s̶i̶4̶,
                pcmsolver, p̶s̶i̶4̶f̶o̶c̶k̶c̶i̶, p̶s̶i̶x̶a̶s̶, p̶y̶e̶i̶n̶s̶u̶m̶s̶, r̶e̶s̶p̶,
                s̶i̶m̶i̶n̶t̶, s̶n̶s̶m̶p̶2̶, v̶2̶r̶d̶m̶_̶c̶a̶s̶s̶c̶f̶

  ==> Input File <==

--------------------------------------------------------------------------
memory 3 GB
molecule mol {
0 1
C -3.05197023997761 0.81082901704039 -0.43970975129969
C -3.27108169061562 -0.48697191221332 0.01419662583450
C -2.18360803712841 -1.36330776186846 0.18710950453977
C -0.86786185628181 -0.96038626714405 -0.10983737090570
C -0.65967076692128 0.39391967114624 -0.48868979970870
C -1.74845156395762 1.25697219993729 -0.68745131002128
C -1.53691052448184 2.67201998452548 -1.19685921275692
C 0.78534108414014 0.85865411553219 -0.72215185391038
C -0.13332295522569 2.83336039328600 -1.78556720748577
N 0.85493017447285 2.33529069773812 -0.81292185512069
C 1.71069812205216 0.18310775488405 0.29976073130045
C 0.30000238599213 -1.86917459825850 -0.06137936182454
C 1.58156515712381 -1.31116895955538 0.12868641500895
C 1.31618366229332 -4.07623385960508 -0.23652905388142
C 2.59434604077319 -3.51447379855951 -0.01390881669299
C 2.70891596896010 -2.13673984709872 0.15890084665964
C 0.18926190196788 -3.26153491844698 -0.26697058434948
O -4.54678837079536 -0.89817497510673 0.29322276572648
O -2.52227861059454 -2.63732401505040 0.65336613477335
C -2.11356052763961 -2.86529265757189 2.02228449077982
O 1.31867839760236 -5.44510160311605 -0.41953296641604
C 0.05921503898418 -6.08123683095965 -0.65262941429731
O 3.71955696002063 -4.29253611972522 0.02036422798981
C 1.33722264781488 3.14804049560405 0.18798101025986
O 2.04547507910365 2.81878614394489 1.12508297680427
O 0.94680866746257 4.45373687873760 -0.02147354492344
C 1.49693483032367 5.42058031500958 0.91143799327989
C 0.93997741692921 6.78199378230609 0.52900429783960
H -3.90370116991396 1.47011229823763 -0.59376196368393
H -2.29784179361132 2.90814487486593 -1.95392568345537
H -1.65881498335938 3.39606399002425 -0.37834102359226
H 1.10009367439943 0.49686415738070 -1.71676675659403
H -0.02950021655781 2.21787487826856 -2.68991618938473
H 0.08297763835869 3.86976803387391 -2.04501028520248
H 1.41581890787109 0.47927798613380 1.31302293027049
H 2.74465952065471 0.50598805898955 0.15439255638713
H 3.69827220946797 -1.71011794710546 0.30882144948158
H -0.78708176080539 -3.69230934283334 -0.44834374459042
H -4.48483177910448 -1.84104200565539 0.52743083432769
H -2.56611259262968 -2.11371195554479 2.68564479304677
H -1.02008660341799 -2.82659461008756 2.10727177547122
H -2.47296621853892 -3.86536457854046 2.28746810072115
H 0.27646291236093 -7.14738436151865 -0.76122066995854
H -0.62361324129066 -5.92005983286116 0.19536558578874
H -0.40993031995582 -5.69694043794959 -1.57072174537543
H 3.45045829640452 -5.21203698546894 -0.13529764505049
H 1.21193933651676 5.13560572673850 1.93177634165757
H 2.59231648327826 5.39535712067021 0.84783168004330
H -0.15499095305222 6.78889529576044 0.59586240969940
H 1.33498829303817 7.54191001557719 1.21597756747474
H 1.23187596748984 7.05206629563271 -0.49334623468415
units angstrom
no_reorient
no_com
}
set basis def2-SVP
set scf_type disk_df
set freeze_core true
set e_convergence 8
energy('b3lyp-d3bj')
--------------------------------------------------------------------------

  Memory set to   2.794 GiB by Python driver.

Scratch directory: /Users/hoyoun/Documents/Yonsei_AX_Camp/(진짜_이게_최종)/calibration/dft_work/_scratch/i16e/
   => Libint2 <=

    Primary   basis highest AM E, G, H:  7, 6, 3
    Auxiliary basis highest AM E, G, H:  7, 7, 4
    Onebody   basis highest AM E, G, H:  -, -, -
    Solid Harmonics ordering:            Gaussian

*** tstart() called on choehoyun-ui-MacBookAir.local
*** at Mon Aug 10 19:17:45 2026

   => Loading Basis Set <=

    Name: DEF2-SVP
    Role: ORBITAL
    Keyword: BASIS
    atoms 1-9, 11-17, 20, 22, 24, 27-28 entry C          line    90 file /Users/hoyoun/micromamba/envs/psi4env/share/psi4/basis/def2-svp.gbs 
    atoms 10                            entry N          line   110 file /Users/hoyoun/micromamba/envs/psi4env/share/psi4/basis/def2-svp.gbs 
    atoms 18-19, 21, 23, 25-26          entry O          line   130 file /Users/hoyoun/micromamba/envs/psi4env/share/psi4/basis/def2-svp.gbs 
    atoms 29-51                         entry H          line    15 file /Users/hoyoun/micromamba/envs/psi4env/share/psi4/basis/def2-svp.gbs 

   => B3LYP-D3(BJ): Empirical Dispersion <=

    Grimme's -D3 (BJ-damping) Dispersion Correction
    Grimme S.; Ehrlich S.; Goerigk L. (2011), J. Comput. Chem., 32: 1456

        s6 =       1.000000
        s8 =       1.988900
        a1 =       0.398100
        a2 =       4.421100


         ---------------------------------------------------------
                                   SCF
               by Justin Turney, Rob Parrish, Andy Simmonett
                          and Daniel G. A. Smith
                              RKS Reference
                        8 Threads,   2861 MiB Core
         ---------------------------------------------------------

  ==> Geometry <==

    Molecular point group: c1
    Full point group: C1

    Geometry (in Angstrom), charge = 0, multiplicity = 1:

       Center              X                  Y                   Z               Mass       
    ------------   -----------------  -----------------  -----------------  -----------------
         C           -3.051970239978     0.810829017040    -0.439709751300    12.000000000000
         C           -3.271081690616    -0.486971912213     0.014196625834    12.000000000000
         C           -2.183608037128    -1.363307761868     0.187109504540    12.000000000000
         C           -0.867861856282    -0.960386267144    -0.109837370906    12.000000000000
         C           -0.659670766921     0.393919671146    -0.488689799709    12.000000000000
         C           -1.748451563958     1.256972199937    -0.687451310021    12.000000000000
         C           -1.536910524482     2.672019984525    -1.196859212757    12.000000000000
         C            0.785341084140     0.858654115532    -0.722151853910    12.000000000000
         C           -0.133322955226     2.833360393286    -1.785567207486    12.000000000000
         N            0.854930174473     2.335290697738    -0.812921855121    14.003074004430
         C            1.710698122052     0.183107754884     0.299760731300    12.000000000000
         C            0.300002385992    -1.869174598258    -0.061379361825    12.000000000000
         C            1.581565157124    -1.311168959555     0.128686415009    12.000000000000
         C            1.316183662293    -4.076233859605    -0.236529053881    12.000000000000
         C            2.594346040773    -3.514473798560    -0.013908816693    12.000000000000
         C            2.708915968960    -2.136739847099     0.158900846660    12.000000000000
         C            0.189261901968    -3.261534918447    -0.266970584349    12.000000000000
         O           -4.546788370795    -0.898174975107     0.293222765726    15.994914619570
         O           -2.522278610595    -2.637324015050     0.653366134773    15.994914619570
         C           -2.113560527640    -2.865292657572     2.022284490780    12.000000000000
         O            1.318678397602    -5.445101603116    -0.419532966416    15.994914619570
         C            0.059215038984    -6.081236830960    -0.652629414297    12.000000000000
         O            3.719556960021    -4.292536119725     0.020364227990    15.994914619570
         C            1.337222647815     3.148040495604     0.187981010260    12.000000000000
         O            2.045475079104     2.818786143945     1.125082976804    15.994914619570
         O            0.946808667463     4.453736878738    -0.021473544923    15.994914619570
         C            1.496934830324     5.420580315010     0.911437993280    12.000000000000
         C            0.939977416929     6.781993782306     0.529004297840    12.000000000000
         H           -3.903701169914     1.470112298238    -0.593761963684     1.007825032230
         H           -2.297841793611     2.908144874866    -1.953925683455     1.007825032230
         H           -1.658814983359     3.396063990024    -0.378341023592     1.007825032230
         H            1.100093674399     0.496864157381    -1.716766756594     1.007825032230
         H           -0.029500216558     2.217874878269    -2.689916189385     1.007825032230
         H            0.082977638359     3.869768033874    -2.045010285202     1.007825032230
         H            1.415818907871     0.479277986134     1.313022930270     1.007825032230
         H            2.744659520655     0.505988058990     0.154392556387     1.007825032230
         H            3.698272209468    -1.710117947105     0.308821449482     1.007825032230
         H           -0.787081760805    -3.692309342833    -0.448343744590     1.007825032230
         H           -4.484831779104    -1.841042005655     0.527430834328     1.007825032230
         H           -2.566112592630    -2.113711955545     2.685644793047     1.007825032230
         H           -1.020086603418    -2.826594610088     2.107271775471     1.007825032230
         H           -2.472966218539    -3.865364578540     2.287468100721     1.007825032230
         H            0.276462912361    -7.147384361519    -0.761220669959     1.007825032230
         H           -0.623613241291    -5.920059832861     0.195365585789     1.007825032230
         H           -0.409930319956    -5.696940437950    -1.570721745375     1.007825032230
         H            3.450458296405    -5.212036985469    -0.135297645050     1.007825032230
         H            1.211939336517     5.135605726738     1.931776341658     1.007825032230
         H            2.592316483278     5.395357120670     0.847831680043     1.007825032230
         H           -0.154990953052     6.788895295760     0.595862409699     1.007825032230
         H            1.334988293038     7.541910015577     1.215977567475     1.007825032230
         H            1.231875967490     7.052066295633    -0.493346234684     1.007825032230

  Running in c1 symmetry.

  Rotational constants: A =      0.00903  B =      0.00374  C =      0.00285 [cm^-1]
  Rotational constants: A =    270.85385  B =    112.09283  C =     85.52463 [MHz]
  Nuclear repulsion = 2700.780040440700759

  Charge       = 0
  Multiplicity = 1
  Electrons    = 204
  Nalpha       = 102
  Nbeta        = 102

  ==> Algorithm <==

  SCF Algorithm Type is DISK_DF.
  DIIS enabled.
  MOM disabled.
  Fractional occupation disabled.
  Guess Type is SAD.
  Energy threshold   = 1.00e-08
  Density threshold  = 1.00e-06
  Integral threshold = 1.00e-12

  ==> Primary Basis <==

  Basis Set: DEF2-SVP
    Blend: DEF2-SVP
    Number of shells: 237
    Number of basis functions: 507
    Number of Cartesian functions: 535
    Spherical Harmonics?: true
    Max angular momentum: 2

  ==> DFT Potential <==

   => LibXC <=

    Version 7.1.2
    S. Lehtola, C. Steigemann, M. J. T. Oliveira, and M. A. L. Marques,  SoftwareX 7, 1–5 (2018) (10.1016/j.softx.2017.11.002)

   => Composite Functional: B3LYP-D3BJ2B <= 

    B3LYP-d3bj2b Hyb-GGA Exchange-Correlation Functional

    P. J. Stephens, F. J. Devlin, C. F. Chabalowski, and M. J. Frisch,  J. Phys. Chem. 98, 11623 (1994) (10.1021/j100096a001)

    Deriv               =              1
    GGA                 =           TRUE
    Meta                =          FALSE

    Exchange Hybrid     =           TRUE
    MP2 Hybrid          =          FALSE

   => Exchange Functionals <=

    0.0800   Slater exchange
    0.7200         Becke 88

   => Exact (HF) Exchange <=

    0.2000               HF 

   => Correlation Functionals <=

    0.1900   Vosko, Wilk & Nusair (VWN5_RPA)
    0.8100   Lee, Yang & Parr

   => LibXC Density Thresholds  <==

    XC_HYB_GGA_XC_B3LYP:  1.00E-15 

   => Molecular Quadrature <=

    Radial Scheme          =       TREUTLER
    Pruning Scheme         =           NONE
    Nuclear Scheme         =       TREUTLER

    Blocking Scheme        =         OCTREE
    BS radius alpha        =              1
    Pruning alpha          =              1
    Radial Points          =             75
    Spherical Points       =            302
    Total Points           =        1038384
    Total Blocks           =           7243
    Max Points             =            256
    Max Functions          =            346
    Weights Tolerance      =       1.00E-15

   => Loading Basis Set <=

    Name: (DEF2-SVP AUX)
    Role: JKFIT
    Keyword: DF_BASIS_SCF
    atoms 1-9, 11-17, 20, 22, 24, 27-28 entry C          line   198 file /Users/hoyoun/micromamba/envs/psi4env/share/psi4/basis/def2-universal-jkfit.gbs 
    atoms 10                            entry N          line   258 file /Users/hoyoun/micromamba/envs/psi4env/share/psi4/basis/def2-universal-jkfit.gbs 
    atoms 18-19, 21, 23, 25-26          entry O          line   318 file /Users/hoyoun/micromamba/envs/psi4env/share/psi4/basis/def2-universal-jkfit.gbs 
    atoms 29-51                         entry H          line    18 file /Users/hoyoun/micromamba/envs/psi4env/share/psi4/basis/def2-universal-jkfit.gbs 

  ==> Integral Setup <==

  ==> DiskDFJK: Density-Fitted J/K Matrices <==

    J tasked:                  Yes
    K tasked:                  Yes
    wK tasked:                  No
    OpenMP threads:              8
    Integrals threads:           8
    Memory [MiB]:             1797
    Algorithm:                Disk
    Integral Cache:           NONE
    Schwarz Cutoff:          1E-12
    Fitting Condition:       1E-10

   => Auxiliary Basis Set <=

  Basis Set: (DEF2-SVP AUX)
    Blend: DEF2-UNIVERSAL-JKFIT
    Number of shells: 838
    Number of basis functions: 2528
    Number of Cartesian functions: 2980
    Spherical Harmonics?: true
    Max angular momentum: 4

  Cached 5.6% of DFT collocation blocks in 0.316 [GiB].

  Minimum eigenvalue in the overlap matrix is 1.6706394421E-04.
  Reciprocal condition number of the overlap matrix is 2.3167097059E-05.
    Using symmetric orthogonalization.

  ==> Pre-Iterations <==

  SCF Guess: Superposition of Atomic Densities via on-the-fly atomic UHF (no occupation information).

   -------------------------
    Irrep   Nso     Nmo    
   -------------------------
     A        507     507 
   -------------------------
    Total     507     507
   -------------------------

  ==> Iterations <==

                           Total Energy        Delta E     RMS |[F,P]|

   @DF-RKS iter SAD: -1318.71906069904981   -1.31872e+03   0.00000e+00 
   @DF-RKS iter   1: -1318.03641838682142    6.82642e-01   3.13796e-03 DIIS/ADIIS
   @DF-RKS iter   2: -1317.64577009129130    3.90648e-01   3.66315e-03 DIIS/ADIIS
   @DF-RKS iter   3: -1319.24189137553958   -1.59612e+00   9.22283e-04 DIIS/ADIIS
   @DF-RKS iter   4: -1319.34047435979687   -9.85830e-02   2.70697e-04 DIIS/ADIIS
   @DF-RKS iter   5: -1319.34839991398303   -7.92555e-03   1.08298e-04 DIIS/ADIIS
   @DF-RKS iter   6: -1319.34971234058685   -1.31243e-03   3.52854e-05 DIIS
   @DF-RKS iter   7: -1319.34985702028871   -1.44680e-04   1.45147e-05 DIIS
   @DF-RKS iter   8: -1319.34988268135021   -2.56611e-05   3.01647e-06 DIIS
   @DF-RKS iter   9: -1319.34988369044231   -1.00909e-06   1.10051e-06 DIIS
   @DF-RKS iter  10: -1319.34988382859456   -1.38152e-07   3.54481e-07 DIIS
   @DF-RKS iter  11: -1319.34988384346411   -1.48696e-08   1.03080e-07 DIIS
   @DF-RKS iter  12: -1319.34988384466578   -1.20167e-09   4.55207e-08 DIIS
  Energy and wave function converged.


  ==> Post-Iterations <==

   Electrons on quadrature grid:
      Ntotal   =  204.0000965980 ; deviation = 9.660e-05 

    Orbital Energies [Eh]
    ---------------------

    Doubly Occupied:                                                      

       1A    -19.174620     2A    -19.166149     3A    -19.162712  
       4A    -19.158914     5A    -19.156705     6A    -19.097275  
       7A    -14.351923     8A    -10.324428     9A    -10.254240  
      10A    -10.246394    11A    -10.246034    12A    -10.245849  
      13A    -10.244442    14A    -10.239880    15A    -10.237834  
      16A    -10.231850    17A    -10.220681    18A    -10.201808  
      19A    -10.195237    20A    -10.193545    21A    -10.191419  
      22A    -10.190500    23A    -10.189566    24A    -10.188788  
      25A    -10.187105    26A    -10.182047    27A    -10.181158  
      28A    -10.181078    29A     -1.078801    30A     -1.064577  
      31A     -1.057433    32A     -1.034397    33A     -1.027960  
      34A     -0.986926    35A     -0.935118    36A     -0.865332  
      37A     -0.839785    38A     -0.796906    39A     -0.779161  
      40A     -0.759470    41A     -0.755373    42A     -0.744498  
      43A     -0.725354    44A     -0.712411    45A     -0.700082  
      46A     -0.680098    47A     -0.651836    48A     -0.629186  
      49A     -0.625502    50A     -0.613222    51A     -0.604251  
      52A     -0.586994    53A     -0.573233    54A     -0.552652  
      55A     -0.545765    56A     -0.544607    57A     -0.521474  
      58A     -0.512496    59A     -0.503380    60A     -0.495234  
      61A     -0.485095    62A     -0.480730    63A     -0.478142  
      64A     -0.473183    65A     -0.470142    66A     -0.457956  
      67A     -0.451261    68A     -0.448872    69A     -0.444894  
      70A     -0.440541    71A     -0.432829    72A     -0.430043  
      73A     -0.422661    74A     -0.412482    75A     -0.412327  
      76A     -0.404638    77A     -0.402896    78A     -0.398149  
      79A     -0.394269    80A     -0.391509    81A     -0.386122  
      82A     -0.375845    83A     -0.374517    84A     -0.370573  
      85A     -0.363555    86A     -0.360674    87A     -0.356518  
      88A     -0.351444    89A     -0.348293    90A     -0.346349  
      91A     -0.341013    92A     -0.337462    93A     -0.328160  
      94A     -0.306088    95A     -0.293829    96A     -0.292914  
      97A     -0.266527    98A     -0.257202    99A     -0.240612  
     100A     -0.235715   101A     -0.218893   102A     -0.199678  

    Virtual:                                                              

     103A     -0.036101   104A     -0.001821   105A      0.006893  
     106A      0.033585   107A      0.044122   108A      0.048340  
     109A      0.056714   110A      0.060216   111A      0.069859  
     112A      0.073981   113A      0.083871   114A      0.085119  
     115A      0.094612   116A      0.105679   117A      0.106215  
     118A      0.109571   119A      0.111153   120A      0.114060  
     121A      0.116539   122A      0.123163   123A      0.127562  
     124A      0.129262   125A      0.133606   126A      0.139202  
     127A      0.142335   128A      0.145835   129A      0.148437  
     130A      0.151789   131A      0.156353   132A      0.160383  
     133A      0.164803   134A      0.170447   135A      0.184771  
     136A      0.188898   137A      0.193617   138A      0.195647  
     139A      0.207025   140A      0.214631   141A      0.232294  
     142A      0.238237   143A      0.241651   144A      0.249842  
     145A      0.257746   146A      0.260767   147A      0.272248  
     148A      0.280244   149A      0.291458   150A      0.301297  
     151A      0.307074   152A      0.314426   153A      0.317152  
     154A      0.325521   155A      0.332826   156A      0.345421  
     157A      0.354055   158A      0.361431   159A      0.372792  
     160A      0.379024   161A      0.388886   162A      0.398339  
     163A      0.408299   164A      0.412247   165A      0.418057  
     166A      0.432138   167A      0.432795   168A      0.437217  
     169A      0.440600   170A      0.446381   171A      0.448665  
     172A      0.454832   173A      0.457030   174A      0.458675  
     175A      0.464481   176A      0.469300   177A      0.479785  
     178A      0.480950   179A      0.486800   180A      0.496113  
     181A      0.497615   182A      0.510822   183A      0.517590  
     184A      0.527165   185A      0.531427   186A      0.538735  
     187A      0.541445   188A      0.550759   189A      0.557447  
     190A      0.568387   191A      0.573024   192A      0.576141  
     193A      0.586189   194A      0.589061   195A      0.593149  
     196A      0.597618   197A      0.600875   198A      0.606864  
     199A      0.614619   200A      0.617154   201A      0.620751  
     202A      0.624012   203A      0.626750   204A      0.629255  
     205A      0.633114   206A      0.638095   207A      0.640170  
     208A      0.644726   209A      0.646920   210A      0.651931  
     211A      0.658149   212A      0.658502   213A      0.661770  
     214A      0.663593   215A      0.667816   216A      0.671510  
     217A      0.674357   218A      0.675893   219A      0.681906  
     220A      0.685527   221A      0.688167   222A      0.690013  
     223A      0.694599   224A      0.696729   225A      0.698042  
     226A      0.703905   227A      0.709303   228A      0.710893  
     229A      0.714430   230A      0.719702   231A      0.725851  
     232A      0.737613   233A      0.753786   234A      0.757854  
     235A      0.763991   236A      0.771891   237A      0.782143  
     238A      0.785142   239A      0.798728   240A      0.804931  
     241A      0.808961   242A      0.821654   243A      0.836181  
     244A      0.843800   245A      0.847348   246A      0.850359  
     247A      0.861354   248A      0.875245   249A      0.883913  
     250A      0.890915   251A      0.923890   252A      0.935935  
     253A      0.948420   254A      0.957707   255A      0.969008  
     256A      0.975861   257A      0.986499   258A      0.992469  
     259A      0.997171   260A      1.001267   261A      1.014004  
     262A      1.025851   263A      1.034385   264A      1.043825  
     265A      1.046290   266A      1.062434   267A      1.085293  
     268A      1.088986   269A      1.094446   270A      1.108370  
     271A      1.119502   272A      1.136575   273A      1.145771  
     274A      1.152918   275A      1.155470   276A      1.183595  
     277A      1.188943   278A      1.193220   279A      1.211424  
     280A      1.219485   281A      1.220787   282A      1.243105  
     283A      1.246191   284A      1.263685   285A      1.267733  
     286A      1.274029   287A      1.287217   288A      1.295604  
     289A      1.303786   290A      1.308366   291A      1.320365  
     292A      1.333296   293A      1.345983   294A      1.346587  
     295A      1.352892   296A      1.364202   297A      1.369806  
     298A      1.377944   299A      1.379527   300A      1.391021  
     301A      1.400831   302A      1.426014   303A      1.428268  
     304A      1.445842   305A      1.455370   306A      1.467603  
     307A      1.470742   308A      1.494926   309A      1.499564  
     310A      1.518860   311A      1.526554   312A      1.527983  
     313A      1.535497   314A      1.544869   315A      1.547072  
     316A      1.554621   317A      1.570166   318A      1.575692  
     319A      1.587903   320A      1.597461   321A      1.612630  
     322A      1.622989   323A      1.624483   324A      1.639916  
     325A      1.647252   326A      1.653746   327A      1.671009  
     328A      1.683673   329A      1.691874   330A      1.698068  
     331A      1.703845   332A      1.715308   333A      1.716934  
     334A      1.725235   335A      1.729806   336A      1.740644  
     337A      1.742579   338A      1.746763   339A      1.752600  
     340A      1.755103   341A      1.756861   342A      1.760749  
     343A      1.766630   344A      1.768565   345A      1.775750  
     346A      1.781035   347A      1.785830   348A      1.791067  
     349A      1.798507   350A      1.806299   351A      1.811834  
     352A      1.813356   353A      1.818372   354A      1.827251  
     355A      1.831199   356A      1.834149   357A      1.837713  
     358A      1.846972   359A      1.854142   360A      1.869265  
     361A      1.872055   362A      1.873251   363A      1.879089  
     364A      1.883472   365A      1.886482   366A      1.894385  
     367A      1.902949   368A      1.905306   369A      1.912474  
     370A      1.916822   371A      1.921158   372A      1.928239  
     373A      1.931472   374A      1.934669   375A      1.948680  
     376A      1.962209   377A      1.964077   378A      1.970214  
     379A      1.989987   380A      1.996645   381A      2.006088  
     382A      2.011101   383A      2.019737   384A      2.041188  
     385A      2.050076   386A      2.064595   387A      2.067241  
     388A      2.083706   389A      2.092201   390A      2.099343  
     391A      2.114873   392A      2.121800   393A      2.136699  
     394A      2.143804   395A      2.156966   396A      2.164029  
     397A      2.168840   398A      2.175705   399A      2.180401  
     400A      2.192108   401A      2.202334   402A      2.215322  
     403A      2.223389   404A      2.227574   405A      2.236611  
     406A      2.249486   407A      2.256311   408A      2.268854  
     409A      2.275221   410A      2.290610   411A      2.293637  
     412A      2.297387   413A      2.309717   414A      2.319811  
     415A      2.325253   416A      2.335036   417A      2.344211  
     418A      2.358222   419A      2.371663   420A      2.375966  
     421A      2.386663   422A      2.393923   423A      2.406228  
     424A      2.410384   425A      2.429211   426A      2.450149  
     427A      2.459250   428A      2.472087   429A      2.483671  
     430A      2.504269   431A      2.518502   432A      2.545893  
     433A      2.557363   434A      2.562968   435A      2.585065  
     436A      2.588614   437A      2.590981   438A      2.608240  
     439A      2.620165   440A      2.626173   441A      2.638290  
     442A      2.644382   443A      2.650098   444A      2.658281  
     445A      2.662223   446A      2.669534   447A      2.681185  
     448A      2.684664   449A      2.701697   450A      2.706266  
     451A      2.745624   452A      2.750497   453A      2.786136  
     454A      2.788697   455A      2.793037   456A      2.805476  
     457A      2.826024   458A      2.831379   459A      2.836477  
     460A      2.838447   461A      2.847443   462A      2.853549  
     463A      2.870902   464A      2.876736   465A      2.889040  
     466A      2.911715   467A      2.920929   468A      2.924491  
     469A      2.924854   470A      2.934539   471A      2.939284  
     472A      2.954941   473A      2.966023   474A      2.968592  
     475A      2.970975   476A      2.982270   477A      2.986771  
     478A      2.994397   479A      3.020994   480A      3.022999  
     481A      3.033310   482A      3.037457   483A      3.042012  
     484A      3.046721   485A      3.057678   486A      3.073426  
     487A      3.104882   488A      3.116398   489A      3.171719  
     490A      3.188839   491A      3.226307   492A      3.257477  
     493A      3.263524   494A      3.273884   495A      3.307077  
     496A      3.313808   497A      3.364770   498A      3.404225  
     499A      3.437782   500A      3.443626   501A      3.489396  
     502A      3.610042   503A      3.661324   504A      3.664874  
     505A      3.703536   506A      3.808920   507A      3.820488  

    Final Occupation by Irrep:
              A 
    DOCC [   102 ]
    NA   [   102 ]
    NB   [   102 ]

  @DF-RKS Final Energy: -1319.34988384466578

   => Energetics <=

    Nuclear Repulsion Energy =           2700.7800404407007591
    One-Electron Energy =               -7168.7682292261888506
    Two-Electron Energy =                3295.1810187323580976
    DFT Exchange-Correlation Energy =    -146.4277424793644400
    Empirical Dispersion Energy =          -0.1149713121712834
    VV10 Nonlocal Energy =                  0.0000000000000000
    Total Energy =                      -1319.3498838446657828

Computation Completed


Properties will be evaluated at   0.000000,   0.000000,   0.000000 [a0]

Properties computed using the SCF density matrix


 Multipole Moments:

 ------------------------------------------------------------------------------------
     Multipole            Electronic (a.u.)      Nuclear  (a.u.)        Total (a.u.)
 ------------------------------------------------------------------------------------

 L = 1.  Multiply by 2.5417464519 to convert [e a0] to [Debye]
 Dipole X            :        -18.0083089           17.2454070           -0.7629019
 Dipole Y            :         85.9695078          -86.6019343           -0.6324265
 Dipole Z            :          8.1747800           -8.3751397           -0.2003598
 Magnitude           :                                                    1.0110028

 ------------------------------------------------------------------------------------

*** tstop() called on choehoyun-ui-MacBookAir.local at Mon Aug 10 19:19:26 2026
Module time:
	user time   =     619.21 seconds =      10.32 minutes
	system time =      13.13 seconds =       0.22 minutes
	total time  =        101 seconds =       1.68 minutes
Total time:
	user time   =     619.21 seconds =      10.32 minutes
	system time =      13.13 seconds =       0.22 minutes
	total time  =        101 seconds =       1.68 minutes

    Psi4 stopped on: Monday, 10 August 2026 07:19PM
    Psi4 wall time for execution: 0:01:41.92

*** Psi4 exiting successfully. Buy a developer a beer!
