
    -----------------------------------------------------------------------
          Psi4: An Open-Source Ab Initio Electronic Structure Package
                               Psi4 1.11 release

                         Git: Rev {} zzzzzzz 


    D. G. A. Smith, L. A. Burns, A. C. Simmonett, R. M. Parrish,
    M. C. Schieber, R. Galvelis, P. Kraus, H. Kruse, R. Di Remigio,
    A. Alenaizan, A. M. James, S. Lehtola, J. P. Misiewicz, M. Scheurer,
    R. A. Shaw, J. B. Schriber, Y. Xie, Z. L. Glick, D. A. Sirianni,
    J. S. O'Brien, J. M. Waldrop, A. Kumar, E. G. Hohenstein,
    B. P. Pritchard, B. R. Brooks, H. F. Schaefer III, A. Yu. Sokolov,
    K. Patkowski, A. E. DePrince III, U. Bozkaya, R. A. King,
    F. A. Evangelista, J. M. Turney, T. D. Crawford, C. D. Sherrill,
    J. Chem. Phys. 152(18) 184108 (2020). https://doi.org/10.1063/5.0006002

                            Additional Code Authors
    E. T. Seidl, C. L. Janssen, E. F. Valeev, M. L. Leininger,
    J. F. Gonthier, R. M. Richard, H. R. McAlexander, M. Saitow, X. Wang,
    P. Verma, M. H. Lechner, A. Jiang, S. Behnle, A. G. Heide,
    M. F. Herbst, D. L. Poole, T. Győri, E. C. Mitchell, J. P. Pederson,
    and A. M. Wallace

             Previous Authors, Complete List of Code Contributors,
                       and Citations for Specific Modules
    https://github.com/psi4/psi4/blob/master/codemeta.json
    https://github.com/psi4/psi4/graphs/contributors
    https://psicode.org/psi4manual/master/introduction.html#citing-psifour

    -----------------------------------------------------------------------


    Psi4 started on: Monday, 10 August 2026 06:31PM

    Process ID: 75092
    Host:       choehoyun-ui-MacBookAir.local
    PSIDATADIR: /Users/hoyoun/micromamba/envs/psi4env/share/psi4
    Memory:     500.0 MiB
    Threads:    8
    Addons:     a̶d̶c̶c̶, a̶m̶b̶i̶t̶, b̶s̶e̶, c̶c̶t̶3̶, c̶f̶o̶u̶r̶, c̶h̶e̶m̶p̶s̶2̶, c̶p̶p̶e̶, d̶d̶x̶, dftd3,
                d̶f̶t̶d̶4̶, dkh, ecpint, einsums, f̶o̶r̶t̶e̶, gauxc, g̶c̶p̶, g̶d̶m̶a̶,
                g̶e̶o̶m̶e̶t̶r̶i̶c̶, g̶p̶u̶_̶d̶f̶c̶c̶, i̶n̶t̶e̶g̶r̶a̶t̶o̶r̶x̶x̶, i̶p̶i̶,
                l̶i̶b̶e̶f̶p̶, m̶d̶i̶, m̶p̶2̶d̶, m̶r̶c̶c̶, ooo, o̶p̶e̶n̶f̶e̶r̶m̶i̶o̶n̶p̶s̶i̶4̶,
                pcmsolver, p̶s̶i̶4̶f̶o̶c̶k̶c̶i̶, p̶s̶i̶x̶a̶s̶, p̶y̶e̶i̶n̶s̶u̶m̶s̶, r̶e̶s̶p̶,
                s̶i̶m̶i̶n̶t̶, s̶n̶s̶m̶p̶2̶, v̶2̶r̶d̶m̶_̶c̶a̶s̶s̶c̶f̶

  ==> Input File <==

--------------------------------------------------------------------------
memory 3 GB
molecule mol {
0 1
Si 0.00000000000000 -2.06141372498793 -0.87292219543158
Si 0.00000000000000 0.00000000000000 -2.02977267842174
Si 0.00000000000000 2.06141372498793 -0.87292219543158
Si 0.00000000000000 2.04066421562925 1.47296701831198
Si 0.00000000000000 -2.04066421562925 1.47296701831198
H 1.19799584755937 -2.82548432413724 -1.31822002326844
H -1.19799584755937 -2.82548432413724 -1.31822002326844
H -1.19676834407065 0.00000000000000 -2.91518336282058
H 1.19676834407065 0.00000000000000 -2.91518336282058
H 1.19799584755937 2.82548432413724 -1.31822002326844
H -1.19799584755937 2.82548432413724 -1.31822002326844
H 0.00000000000000 3.44041425097907 1.97229555913436
H -1.20608544919254 1.35278074836193 1.99746883248924
H 1.20608544919254 1.35278074836193 1.99746883248924
H 0.00000000000000 -3.44041425097907 1.97229555913436
H 1.20608544919254 -1.35278074836193 1.99746883248924
H -1.20608544919254 -1.35278074836193 1.99746883248924
units angstrom
no_reorient
no_com
}
set basis def2-SVP
set scf_type df
set freeze_core true
set e_convergence 8
energy('b3lyp-d3bj')
--------------------------------------------------------------------------

  Memory set to   2.794 GiB by Python driver.

Scratch directory: /Users/hoyoun/Documents/Yonsei_AX_Camp/(진짜_이게_최종)/calibration/dft_work/_scratch/SI5H12_4/
   => Libint2 <=

    Primary   basis highest AM E, G, H:  7, 6, 3
    Auxiliary basis highest AM E, G, H:  7, 7, 4
    Onebody   basis highest AM E, G, H:  -, -, -
    Solid Harmonics ordering:            Gaussian

*** tstart() called on choehoyun-ui-MacBookAir.local
*** at Mon Aug 10 18:31:19 2026

   => Loading Basis Set <=

    Name: DEF2-SVP
    Role: ORBITAL
    Keyword: BASIS
    atoms 1-5  entry SI         line   272 file /Users/hoyoun/micromamba/envs/psi4env/share/psi4/basis/def2-svp.gbs 
    atoms 6-17 entry H          line    15 file /Users/hoyoun/micromamba/envs/psi4env/share/psi4/basis/def2-svp.gbs 

   => B3LYP-D3(BJ): Empirical Dispersion <=

    Grimme's -D3 (BJ-damping) Dispersion Correction
    Grimme S.; Ehrlich S.; Goerigk L. (2011), J. Comput. Chem., 32: 1456

        s6 =       1.000000
        s8 =       1.988900
        a1 =       0.398100
        a2 =       4.421100


         ---------------------------------------------------------
                                   SCF
               by Justin Turney, Rob Parrish, Andy Simmonett
                          and Daniel G. A. Smith
                              RKS Reference
                        8 Threads,   2861 MiB Core
         ---------------------------------------------------------

  ==> Geometry <==

    Molecular point group: c2v
    Full point group: C2v

    Geometry (in Angstrom), charge = 0, multiplicity = 1:

       Center              X                  Y                   Z               Mass       
    ------------   -----------------  -----------------  -----------------  -----------------
         SI           0.000000000000    -2.061413724988    -0.872922195432    27.976926534650
         SI           0.000000000000     0.000000000000    -2.029772678422    27.976926534650
         SI          -0.000000000000     2.061413724988    -0.872922195432    27.976926534650
         SI          -0.000000000000     2.040664215629     1.472967018312    27.976926534650
         SI           0.000000000000    -2.040664215629     1.472967018312    27.976926534650
         H            1.197995847559    -2.825484324137    -1.318220023268     1.007825032230
         H           -1.197995847559    -2.825484324137    -1.318220023268     1.007825032230
         H           -1.196768344071    -0.000000000000    -2.915183362821     1.007825032230
         H            1.196768344071     0.000000000000    -2.915183362821     1.007825032230
         H            1.197995847559     2.825484324137    -1.318220023268     1.007825032230
         H           -1.197995847559     2.825484324137    -1.318220023268     1.007825032230
         H           -0.000000000000     3.440414250979     1.972295559134     1.007825032230
         H           -1.206085449193     1.352780748362     1.997468832489     1.007825032230
         H            1.206085449193     1.352780748362     1.997468832489     1.007825032230
         H            0.000000000000    -3.440414250979     1.972295559134     1.007825032230
         H            1.206085449193    -1.352780748362     1.997468832489     1.007825032230
         H           -1.206085449193    -1.352780748362     1.997468832489     1.007825032230

  Running in c2v symmetry.

  Rotational constants: A =      0.04931  B =      0.03072  C =      0.01957 [cm^-1]
  Rotational constants: A =   1478.16281  B =    920.98662  C =    586.58610 [MHz]
  Nuclear repulsion =  478.562382528962928

  Charge       = 0
  Multiplicity = 1
  Electrons    = 82
  Nalpha       = 41
  Nbeta        = 41

  ==> Algorithm <==

  SCF Algorithm Type is DF.
  DIIS enabled.
  MOM disabled.
  Fractional occupation disabled.
  Guess Type is SAD.
  Energy threshold   = 1.00e-08
  Density threshold  = 1.00e-06
  Integral threshold = 1.00e-12

  ==> Primary Basis <==

  Basis Set: DEF2-SVP
    Blend: DEF2-SVP
    Number of shells: 76
    Number of basis functions: 150
    Number of Cartesian functions: 155
    Spherical Harmonics?: true
    Max angular momentum: 2

  ==> DFT Potential <==

   => LibXC <=

    Version 7.1.2
    S. Lehtola, C. Steigemann, M. J. T. Oliveira, and M. A. L. Marques,  SoftwareX 7, 1–5 (2018) (10.1016/j.softx.2017.11.002)

   => Composite Functional: B3LYP-D3BJ2B <= 

    B3LYP-d3bj2b Hyb-GGA Exchange-Correlation Functional

    P. J. Stephens, F. J. Devlin, C. F. Chabalowski, and M. J. Frisch,  J. Phys. Chem. 98, 11623 (1994) (10.1021/j100096a001)

    Deriv               =              1
    GGA                 =           TRUE
    Meta                =          FALSE

    Exchange Hybrid     =           TRUE
    MP2 Hybrid          =          FALSE

   => Exchange Functionals <=

    0.0800   Slater exchange
    0.7200         Becke 88

   => Exact (HF) Exchange <=

    0.2000               HF 

   => Correlation Functionals <=

    0.1900   Vosko, Wilk & Nusair (VWN5_RPA)
    0.8100   Lee, Yang & Parr

   => LibXC Density Thresholds  <==

    XC_HYB_GGA_XC_B3LYP:  1.00E-15 

   => Molecular Quadrature <=

    Radial Scheme          =       TREUTLER
    Pruning Scheme         =           NONE
    Nuclear Scheme         =       TREUTLER

    Blocking Scheme        =         OCTREE
    BS radius alpha        =              1
    Pruning alpha          =              1
    Radial Points          =             75
    Spherical Points       =            302
    Total Points           =         361471
    Total Blocks           =           2712
    Max Points             =            256
    Max Functions          =            137
    Weights Tolerance      =       1.00E-15

   => Loading Basis Set <=

    Name: (DEF2-SVP AUX)
    Role: JKFIT
    Keyword: DF_BASIS_SCF
    atoms 1-5  entry SI         line   737 file /Users/hoyoun/micromamba/envs/psi4env/share/psi4/basis/def2-universal-jkfit.gbs 
    atoms 6-17 entry H          line    18 file /Users/hoyoun/micromamba/envs/psi4env/share/psi4/basis/def2-universal-jkfit.gbs 

  ==> Integral Setup <==

  DFHelper Memory: AOs need 0.140 GiB; user supplied 1.122 GiB. 
  SCF_SUBTYPE=INCORE selected. In-core MEM_DF algorithm will be used.
  Using in-core AOs.

  ==> MemDFJK: Density-Fitted J/K Matrices <==

    J tasked:                   Yes
    K tasked:                   Yes
    wK tasked:                   No
    OpenMP threads:               8
    Memory [MiB]:              1148
    Algorithm:                 Core
    Schwarz Cutoff:           1E-12
    Mask sparsity (%):      10.4000
    Fitting Condition:        1E-10

   => Auxiliary Basis Set <=

  Basis Set: (DEF2-SVP AUX)
    Blend: DEF2-UNIVERSAL-JKFIT
    Number of shells: 262
    Number of basis functions: 856
    Number of Cartesian functions: 1015
    Spherical Harmonics?: true
    Max angular momentum: 4

  Cached 100.0% of DFT collocation blocks in 0.974 [GiB].

  Minimum eigenvalue in the overlap matrix is 2.1518309499E-03.
  Reciprocal condition number of the overlap matrix is 4.8441501909E-04.
    Using symmetric orthogonalization.

  ==> Pre-Iterations <==

  SCF Guess: Superposition of Atomic Densities via on-the-fly atomic UHF (no occupation information).

   -------------------------
    Irrep   Nso     Nmo    
   -------------------------
     A1        53      53 
     A2        23      23 
     B1        29      29 
     B2        45      45 
   -------------------------
    Total     150     150
   -------------------------

  ==> Iterations <==

                           Total Energy        Delta E     RMS |[F,P]|

   @DF-RKS iter SAD: -1453.54246170116835   -1.45354e+03   0.00000e+00 
   @DF-RKS iter   1: -1454.24100321393439   -6.98542e-01   4.31974e-03 DIIS/ADIIS
   @DF-RKS iter   2: -1454.30359700057352   -6.25938e-02   2.73749e-03 DIIS/ADIIS
   @DF-RKS iter   3: -1454.33769924890180   -3.41022e-02   5.47528e-04 DIIS/ADIIS
   @DF-RKS iter   4: -1454.33924521809172   -1.54597e-03   1.05997e-04 DIIS/ADIIS
   @DF-RKS iter   5: -1454.33930552332231   -6.03052e-05   1.54789e-05 DIIS
   @DF-RKS iter   6: -1454.33930672939960   -1.20608e-06   4.53247e-06 DIIS
   @DF-RKS iter   7: -1454.33930683607196   -1.06672e-07   1.27616e-06 DIIS
   @DF-RKS iter   8: -1454.33930684491861   -8.84665e-09   1.28978e-07 DIIS
  Energy and wave function converged.


  ==> Post-Iterations <==

   Electrons on quadrature grid:
      Ntotal   =   82.0000315267 ; deviation = 3.153e-05 

    Orbital Energies [Eh]
    ---------------------

    Doubly Occupied:                                                      

       1B2   -66.111429     1A1   -66.111380     2A1   -66.109980  
       2B2   -66.108078     3A1   -66.108061     3B2    -5.283990  
       4A1    -5.283957     5A1    -5.283179     4B2    -5.281785  
       6A1    -5.281770     5B2    -3.645468     7A1    -3.645457  
       6B2    -3.645256     8A1    -3.645205     1A2    -3.645186  
       1B1    -3.645186     7B2    -3.644631     9A1    -3.644422  
       2B1    -3.644224    10A1    -3.643125     8B2    -3.643097  
       9B2    -3.642889    11A1    -3.642879     3B1    -3.642867  
       2A2    -3.642867    12A1    -0.589820    10B2    -0.566727  
      13A1    -0.541522    11B2    -0.502136    14A1    -0.473132  
       4B1    -0.381609    15A1    -0.369556     3A2    -0.365788  
       5B1    -0.361755    12B2    -0.350987     4A2    -0.339647  
      16A1    -0.333996     6B1    -0.333208    13B2    -0.303010  
      14B2    -0.289532    17A1    -0.287495  

    Virtual:                                                              

       7B1    -0.021525    18A1    -0.012856    15B2    -0.009074  
      19A1    -0.008281     5A2     0.022424     8B1     0.024771  
      20A1     0.031530    16B2     0.048543    21A1     0.056720  
      22A1     0.065624    17B2     0.076361     6A2     0.079670  
      18B2     0.106068    23A1     0.113930    19B2     0.126191  
       9B1     0.132295    24A1     0.207788    20B2     0.219065  
      21B2     0.260607    25A1     0.261743    26A1     0.263070  
      10B1     0.266627     7A2     0.286731    11B1     0.288309  
      27A1     0.291375    28A1     0.310035    22B2     0.326995  
       8A2     0.332441     9A2     0.353323    23B2     0.353960  
      29A1     0.354454    12B1     0.354889    30A1     0.362032  
      24B2     0.375109    25B2     0.424031    31A1     0.447473  
      13B1     0.463891    26B2     0.485383    32A1     0.486168  
      14B1     0.513087    10A2     0.514486    27B2     0.519268  
      33A1     0.520443    15B1     0.520706    34A1     0.539318  
      35A1     0.554392    28B2     0.558292    36A1     0.574866  
      11A2     0.575795    16B1     0.582661    37A1     0.596279  
      12A2     0.599603    29B2     0.603878    13A2     0.619756  
      30B2     0.623209    17B1     0.643531    31B2     0.648412  
      38A1     0.691683    39A1     0.726432    40A1     0.757947  
      32B2     0.760687    33B2     0.775954    18B1     0.833232  
      14A2     0.879990    19B1     0.903761    41A1     0.909804  
      34B2     0.915653    15A2     0.934536    42A1     0.961535  
      35B2     0.961879    20B1     0.984368    36B2     1.008393  
      43A1     1.040935    21B1     1.369077    16A2     1.381481  
      22B1     1.420590    17A2     1.441820    23B1     1.466750  
      18A2     1.485759    44A1     1.493214    37B2     1.502913  
      24B1     1.519768    19A2     1.522700    25B1     1.573822  
      38B2     1.591968    45A1     1.618438    20A2     1.626977  
      46A1     1.653348    39B2     1.657061    47A1     1.675843  
      40B2     1.676526    41B2     1.714737    48A1     1.722198  
      21A2     1.723020    26B1     1.727327    42B2     1.742271  
      49A1     1.759310    50A1     1.969865    43B2     1.984214  
      51A1     2.004824    44B2     2.036344    52A1     2.069368  
      27B1     2.130704    22A2     2.151314    45B2     2.177222  
      28B1     2.179099    53A1     2.182507    29B1     2.222805  
      23A2     2.223058  

    Final Occupation by Irrep:
             A1    A2    B1    B2 
    DOCC [    17,    4,    6,   14 ]
    NA   [    17,    4,    6,   14 ]
    NB   [    17,    4,    6,   14 ]

  @DF-RKS Final Energy: -1454.33930684491861

   => Energetics <=

    Nuclear Repulsion Energy =            478.5623825289629281
    One-Electron Energy =               -2967.0543995164230182
    Two-Electron Energy =                1122.0984882888346874
    DFT Exchange-Correlation Energy =     -87.9116343622344516
    Empirical Dispersion Energy =          -0.0341437840589307
    VV10 Nonlocal Energy =                  0.0000000000000000
    Total Energy =                      -1454.3393068449186103

Computation Completed


Properties will be evaluated at   0.000000,   0.000000,   0.000000 [a0]

Properties computed using the SCF density matrix


 Multipole Moments:

 ------------------------------------------------------------------------------------
     Multipole            Electronic (a.u.)      Nuclear  (a.u.)        Total (a.u.)
 ------------------------------------------------------------------------------------

 L = 1.  Multiply by 2.5417464519 to convert [e a0] to [Debye]
 Dipole X            :          0.0000000            0.0000000            0.0000000
 Dipole Y            :          0.0000000           -0.0000000           -0.0000000
 Dipole Z            :         20.4417328          -20.3794544            0.0622784
 Magnitude           :                                                    0.0622784

 ------------------------------------------------------------------------------------

*** tstop() called on choehoyun-ui-MacBookAir.local at Mon Aug 10 18:31:22 2026
Module time:
	user time   =      14.78 seconds =       0.25 minutes
	system time =       0.41 seconds =       0.01 minutes
	total time  =          3 seconds =       0.05 minutes
Total time:
	user time   =      14.78 seconds =       0.25 minutes
	system time =       0.41 seconds =       0.01 minutes
	total time  =          3 seconds =       0.05 minutes

    Psi4 stopped on: Monday, 10 August 2026 06:31PM
    Psi4 wall time for execution: 0:00:03.00

*** Psi4 exiting successfully. Buy a developer a beer!
