
    -----------------------------------------------------------------------
          Psi4: An Open-Source Ab Initio Electronic Structure Package
                               Psi4 1.11 release

                         Git: Rev {} zzzzzzz 


    D. G. A. Smith, L. A. Burns, A. C. Simmonett, R. M. Parrish,
    M. C. Schieber, R. Galvelis, P. Kraus, H. Kruse, R. Di Remigio,
    A. Alenaizan, A. M. James, S. Lehtola, J. P. Misiewicz, M. Scheurer,
    R. A. Shaw, J. B. Schriber, Y. Xie, Z. L. Glick, D. A. Sirianni,
    J. S. O'Brien, J. M. Waldrop, A. Kumar, E. G. Hohenstein,
    B. P. Pritchard, B. R. Brooks, H. F. Schaefer III, A. Yu. Sokolov,
    K. Patkowski, A. E. DePrince III, U. Bozkaya, R. A. King,
    F. A. Evangelista, J. M. Turney, T. D. Crawford, C. D. Sherrill,
    J. Chem. Phys. 152(18) 184108 (2020). https://doi.org/10.1063/5.0006002

                            Additional Code Authors
    E. T. Seidl, C. L. Janssen, E. F. Valeev, M. L. Leininger,
    J. F. Gonthier, R. M. Richard, H. R. McAlexander, M. Saitow, X. Wang,
    P. Verma, M. H. Lechner, A. Jiang, S. Behnle, A. G. Heide,
    M. F. Herbst, D. L. Poole, T. Győri, E. C. Mitchell, J. P. Pederson,
    and A. M. Wallace

             Previous Authors, Complete List of Code Contributors,
                       and Citations for Specific Modules
    https://github.com/psi4/psi4/blob/master/codemeta.json
    https://github.com/psi4/psi4/graphs/contributors
    https://psicode.org/psi4manual/master/introduction.html#citing-psifour

    -----------------------------------------------------------------------


    Psi4 started on: Monday, 10 August 2026 07:36PM

    Process ID: 79263
    Host:       choehoyun-ui-MacBookAir.local
    PSIDATADIR: /Users/hoyoun/micromamba/envs/psi4env/share/psi4
    Memory:     500.0 MiB
    Threads:    8
    Addons:     a̶d̶c̶c̶, a̶m̶b̶i̶t̶, b̶s̶e̶, c̶c̶t̶3̶, c̶f̶o̶u̶r̶, c̶h̶e̶m̶p̶s̶2̶, c̶p̶p̶e̶, d̶d̶x̶, dftd3,
                d̶f̶t̶d̶4̶, dkh, ecpint, einsums, f̶o̶r̶t̶e̶, gauxc, g̶c̶p̶, g̶d̶m̶a̶,
                g̶e̶o̶m̶e̶t̶r̶i̶c̶, g̶p̶u̶_̶d̶f̶c̶c̶, i̶n̶t̶e̶g̶r̶a̶t̶o̶r̶x̶x̶, i̶p̶i̶,
                l̶i̶b̶e̶f̶p̶, m̶d̶i̶, m̶p̶2̶d̶, m̶r̶c̶c̶, ooo, o̶p̶e̶n̶f̶e̶r̶m̶i̶o̶n̶p̶s̶i̶4̶,
                pcmsolver, p̶s̶i̶4̶f̶o̶c̶k̶c̶i̶, p̶s̶i̶x̶a̶s̶, p̶y̶e̶i̶n̶s̶u̶m̶s̶, r̶e̶s̶p̶,
                s̶i̶m̶i̶n̶t̶, s̶n̶s̶m̶p̶2̶, v̶2̶r̶d̶m̶_̶c̶a̶s̶s̶c̶f̶

  ==> Input File <==

--------------------------------------------------------------------------
memory 3 GB
molecule mol {
0 1
C -2.20609667561468 -0.15006075354537 0.85137693170391
C -1.91742159734000 -0.10259482228518 -0.74313486745737
C -3.22530146247547 0.56812466871486 -1.31181855560467
C -3.74807692794915 1.52486657020932 -0.19603530125545
C -3.52659960786531 0.69799118702977 1.11687272064441
C -0.69053974559252 0.81509577890837 -1.02850315819005
C 0.64690599519800 0.19335791629103 -0.61889143330409
C 1.59837611378470 1.08581751960428 0.10348487676401
C 1.87462778330341 2.36824768111688 -0.40049273713173
C 2.75697633957204 3.21695236472979 0.27099860663829
C 3.35137079054248 2.80422352609155 1.46860712080217
C 3.06365944320589 1.53754009096990 1.98826173291616
C 2.19637333836355 0.68049902152187 1.30777422403054
O -1.77523576793338 -1.35118257326624 -1.33746782528177
F -3.02254087971524 1.23595614393685 -2.48244550592118
F -4.18312854955872 -0.37378576850708 -1.53106581677661
F -2.97277644889102 2.65134320368475 -0.15290231421557
F -5.03261372817642 1.90087965234276 -0.37123824327169
F -3.40710787232150 1.49977802394576 2.19955648982187
F -4.60859967969408 -0.10666760342850 1.30304160473820
C -2.28961647403903 -1.59646269226506 1.44589308762249
F -3.21310558604242 -2.35725898773376 0.84649310422003
F -1.17403342560576 0.46525046941187 1.54924651135613
N 0.84129532299810 -1.02691997625573 -0.95833909326204
C 2.09578212331940 -1.75261270500874 -0.74872323261448
C 1.87673661857553 -2.86272976307916 0.28934507001966
C 2.52127563410339 -2.34331461493326 -2.10159251819503
F -1.08547168567714 -2.20457785269642 1.33262437453127
F -2.58368091963915 -1.52751961316438 2.76956111817330
H 2.89025645343912 -1.08150174493293 -0.39175899133314
H 2.67925396146510 -1.54947628513222 -2.84190695732519
H 3.45733250645947 -2.90413215956963 -1.98312641195504
H 1.74676375231735 -3.02357805674769 -2.47833599896285
H 1.58878029870467 -2.44931559244742 1.26229342746720
H 1.08075521332970 -3.54078391984293 -0.04198100369342
H 2.80284730922678 -3.43873911219611 0.40961805709573
H 1.40585786518271 2.69646975392972 -1.32629100232923
H 2.97380133080968 4.20273441278517 -0.13526794096789
H 4.02958294007377 3.47005616524289 1.99828695652916
H 3.51096565287499 1.21818112587704 2.92735219086490
H 1.95728518065325 -0.29605552517597 1.71898976659195
H -0.81275995301862 1.78568696335604 -0.54965951075555
H -0.68102924496510 0.96673745008361 -2.11366432209775
H -0.79112573538831 -1.54651956757030 -1.31503523062956
units angstrom
no_reorient
no_com
}
set basis def2-SVP
set scf_type disk_df
set freeze_core true
set e_convergence 8
energy('b3lyp-d3bj')
--------------------------------------------------------------------------

  Memory set to   2.794 GiB by Python driver.

Scratch directory: /Users/hoyoun/Documents/Yonsei_AX_Camp/(진짜_이게_최종)/calibration/dft_work/_scratch/i22e/
   => Libint2 <=

    Primary   basis highest AM E, G, H:  7, 6, 3
    Auxiliary basis highest AM E, G, H:  7, 7, 4
    Onebody   basis highest AM E, G, H:  -, -, -
    Solid Harmonics ordering:            Gaussian

*** tstart() called on choehoyun-ui-MacBookAir.local
*** at Mon Aug 10 19:36:46 2026

   => Loading Basis Set <=

    Name: DEF2-SVP
    Role: ORBITAL
    Keyword: BASIS
    atoms 1-13, 21, 25-27     entry C          line    90 file /Users/hoyoun/micromamba/envs/psi4env/share/psi4/basis/def2-svp.gbs 
    atoms 14                  entry O          line   130 file /Users/hoyoun/micromamba/envs/psi4env/share/psi4/basis/def2-svp.gbs 
    atoms 15-20, 22-23, 28-29 entry F          line   150 file /Users/hoyoun/micromamba/envs/psi4env/share/psi4/basis/def2-svp.gbs 
    atoms 24                  entry N          line   110 file /Users/hoyoun/micromamba/envs/psi4env/share/psi4/basis/def2-svp.gbs 
    atoms 30-44               entry H          line    15 file /Users/hoyoun/micromamba/envs/psi4env/share/psi4/basis/def2-svp.gbs 

   => B3LYP-D3(BJ): Empirical Dispersion <=

    Grimme's -D3 (BJ-damping) Dispersion Correction
    Grimme S.; Ehrlich S.; Goerigk L. (2011), J. Comput. Chem., 32: 1456

        s6 =       1.000000
        s8 =       1.988900
        a1 =       0.398100
        a2 =       4.421100


         ---------------------------------------------------------
                                   SCF
               by Justin Turney, Rob Parrish, Andy Simmonett
                          and Daniel G. A. Smith
                              RKS Reference
                        8 Threads,   2861 MiB Core
         ---------------------------------------------------------

  ==> Geometry <==

    Molecular point group: c1
    Full point group: C1

    Geometry (in Angstrom), charge = 0, multiplicity = 1:

       Center              X                  Y                   Z               Mass       
    ------------   -----------------  -----------------  -----------------  -----------------
         C           -2.206096675615    -0.150060753545     0.851376931704    12.000000000000
         C           -1.917421597340    -0.102594822285    -0.743134867457    12.000000000000
         C           -3.225301462475     0.568124668715    -1.311818555605    12.000000000000
         C           -3.748076927949     1.524866570209    -0.196035301255    12.000000000000
         C           -3.526599607865     0.697991187030     1.116872720644    12.000000000000
         C           -0.690539745593     0.815095778908    -1.028503158190    12.000000000000
         C            0.646905995198     0.193357916291    -0.618891433304    12.000000000000
         C            1.598376113785     1.085817519604     0.103484876764    12.000000000000
         C            1.874627783303     2.368247681117    -0.400492737132    12.000000000000
         C            2.756976339572     3.216952364730     0.270998606638    12.000000000000
         C            3.351370790542     2.804223526092     1.468607120802    12.000000000000
         C            3.063659443206     1.537540090970     1.988261732916    12.000000000000
         C            2.196373338364     0.680499021522     1.307774224031    12.000000000000
         O           -1.775235767933    -1.351182573266    -1.337467825282    15.994914619570
         F           -3.022540879715     1.235956143937    -2.482445505921    18.998403162730
         F           -4.183128549559    -0.373785768507    -1.531065816777    18.998403162730
         F           -2.972776448891     2.651343203685    -0.152902314216    18.998403162730
         F           -5.032613728176     1.900879652343    -0.371238243272    18.998403162730
         F           -3.407107872321     1.499778023946     2.199556489822    18.998403162730
         F           -4.608599679694    -0.106667603428     1.303041604738    18.998403162730
         C           -2.289616474039    -1.596462692265     1.445893087622    12.000000000000
         F           -3.213105586042    -2.357258987734     0.846493104220    18.998403162730
         F           -1.174033425606     0.465250469412     1.549246511356    18.998403162730
         N            0.841295322998    -1.026919976256    -0.958339093262    14.003074004430
         C            2.095782123319    -1.752612705009    -0.748723232614    12.000000000000
         C            1.876736618576    -2.862729763079     0.289345070020    12.000000000000
         C            2.521275634103    -2.343314614933    -2.101592518195    12.000000000000
         F           -1.085471685677    -2.204577852696     1.332624374531    18.998403162730
         F           -2.583680919639    -1.527519613164     2.769561118173    18.998403162730
         H            2.890256453439    -1.081501744933    -0.391758991333     1.007825032230
         H            2.679253961465    -1.549476285132    -2.841906957325     1.007825032230
         H            3.457332506459    -2.904132159570    -1.983126411955     1.007825032230
         H            1.746763752317    -3.023578056748    -2.478335998963     1.007825032230
         H            1.588780298705    -2.449315592447     1.262293427467     1.007825032230
         H            1.080755213330    -3.540783919843    -0.041981003693     1.007825032230
         H            2.802847309227    -3.438739112196     0.409618057096     1.007825032230
         H            1.405857865183     2.696469753930    -1.326291002329     1.007825032230
         H            2.973801330810     4.202734412785    -0.135267940968     1.007825032230
         H            4.029582940074     3.470056165243     1.998286956529     1.007825032230
         H            3.510965652875     1.218181125877     2.927352190865     1.007825032230
         H            1.957285180653    -0.296055525176     1.718989766592     1.007825032230
         H           -0.812759953019     1.785686963356    -0.549659510756     1.007825032230
         H           -0.681029244965     0.966737450084    -2.113664322098     1.007825032230
         H           -0.791125735388    -1.546519567570    -1.315035230630     1.007825032230

  Running in c1 symmetry.

  Rotational constants: A =      0.00790  B =      0.00381  C =      0.00348 [cm^-1]
  Rotational constants: A =    236.74106  B =    114.21340  C =    104.44544 [MHz]
  Nuclear repulsion = 3412.934082238173232

  Charge       = 0
  Multiplicity = 1
  Electrons    = 222
  Nalpha       = 111
  Nbeta        = 111

  ==> Algorithm <==

  SCF Algorithm Type is DISK_DF.
  DIIS enabled.
  MOM disabled.
  Fractional occupation disabled.
  Guess Type is SAD.
  Energy threshold   = 1.00e-08
  Density threshold  = 1.00e-06
  Integral threshold = 1.00e-12

  ==> Primary Basis <==

  Basis Set: DEF2-SVP
    Blend: DEF2-SVP
    Number of shells: 219
    Number of basis functions: 481
    Number of Cartesian functions: 510
    Spherical Harmonics?: true
    Max angular momentum: 2

  ==> DFT Potential <==

   => LibXC <=

    Version 7.1.2
    S. Lehtola, C. Steigemann, M. J. T. Oliveira, and M. A. L. Marques,  SoftwareX 7, 1–5 (2018) (10.1016/j.softx.2017.11.002)

   => Composite Functional: B3LYP-D3BJ2B <= 

    B3LYP-d3bj2b Hyb-GGA Exchange-Correlation Functional

    P. J. Stephens, F. J. Devlin, C. F. Chabalowski, and M. J. Frisch,  J. Phys. Chem. 98, 11623 (1994) (10.1021/j100096a001)

    Deriv               =              1
    GGA                 =           TRUE
    Meta                =          FALSE

    Exchange Hybrid     =           TRUE
    MP2 Hybrid          =          FALSE

   => Exchange Functionals <=

    0.0800   Slater exchange
    0.7200         Becke 88

   => Exact (HF) Exchange <=

    0.2000               HF 

   => Correlation Functionals <=

    0.1900   Vosko, Wilk & Nusair (VWN5_RPA)
    0.8100   Lee, Yang & Parr

   => LibXC Density Thresholds  <==

    XC_HYB_GGA_XC_B3LYP:  1.00E-15 

   => Molecular Quadrature <=

    Radial Scheme          =       TREUTLER
    Pruning Scheme         =           NONE
    Nuclear Scheme         =       TREUTLER

    Blocking Scheme        =         OCTREE
    BS radius alpha        =              1
    Pruning alpha          =              1
    Radial Points          =             75
    Spherical Points       =            302
    Total Points           =         894069
    Total Blocks           =           6217
    Max Points             =            256
    Max Functions          =            325
    Weights Tolerance      =       1.00E-15

   => Loading Basis Set <=

    Name: (DEF2-SVP AUX)
    Role: JKFIT
    Keyword: DF_BASIS_SCF
    atoms 1-13, 21, 25-27     entry C          line   198 file /Users/hoyoun/micromamba/envs/psi4env/share/psi4/basis/def2-universal-jkfit.gbs 
    atoms 14                  entry O          line   318 file /Users/hoyoun/micromamba/envs/psi4env/share/psi4/basis/def2-universal-jkfit.gbs 
    atoms 15-20, 22-23, 28-29 entry F          line   378 file /Users/hoyoun/micromamba/envs/psi4env/share/psi4/basis/def2-universal-jkfit.gbs 
    atoms 24                  entry N          line   258 file /Users/hoyoun/micromamba/envs/psi4env/share/psi4/basis/def2-universal-jkfit.gbs 
    atoms 30-44               entry H          line    18 file /Users/hoyoun/micromamba/envs/psi4env/share/psi4/basis/def2-universal-jkfit.gbs 

  ==> Integral Setup <==

  ==> DiskDFJK: Density-Fitted J/K Matrices <==

    J tasked:                  Yes
    K tasked:                  Yes
    wK tasked:                  No
    OpenMP threads:              8
    Integrals threads:           8
    Memory [MiB]:             1694
    Algorithm:                Disk
    Integral Cache:           NONE
    Schwarz Cutoff:          1E-12
    Fitting Condition:       1E-10

   => Auxiliary Basis Set <=

  Basis Set: (DEF2-SVP AUX)
    Blend: DEF2-UNIVERSAL-JKFIT
    Number of shells: 815
    Number of basis functions: 2469
    Number of Cartesian functions: 2929
    Spherical Harmonics?: true
    Max angular momentum: 4

  Cached 8.3% of DFT collocation blocks in 0.419 [GiB].

  Minimum eigenvalue in the overlap matrix is 2.9050435319E-04.
  Reciprocal condition number of the overlap matrix is 4.2818532625E-05.
    Using symmetric orthogonalization.

  ==> Pre-Iterations <==

  SCF Guess: Superposition of Atomic Densities via on-the-fly atomic UHF (no occupation information).

   -------------------------
    Irrep   Nso     Nmo    
   -------------------------
     A        481     481 
   -------------------------
    Total     481     481
   -------------------------

  ==> Iterations <==

                           Total Energy        Delta E     RMS |[F,P]|

   @DF-RKS iter SAD: -1783.09727830896122   -1.78310e+03   0.00000e+00 
   @DF-RKS iter   1: -1782.98335280317474    1.13926e-01   2.96738e-03 DIIS/ADIIS
   @DF-RKS iter   2: -1782.56015118653795    4.23202e-01   3.64659e-03 DIIS/ADIIS
   @DF-RKS iter   3: -1783.92472531366639   -1.36457e+00   6.80556e-04 DIIS/ADIIS
   @DF-RKS iter   4: -1783.96551149207426   -4.07862e-02   2.72070e-04 DIIS/ADIIS
   @DF-RKS iter   5: -1783.97232995563468   -6.81846e-03   1.01983e-04 DIIS/ADIIS
   @DF-RKS iter   6: -1783.97328440054571   -9.54445e-04   3.28387e-05 DIIS
   @DF-RKS iter   7: -1783.97338410643783   -9.97059e-05   6.82539e-06 DIIS
   @DF-RKS iter   8: -1783.97338774804962   -3.64161e-06   2.37179e-06 DIIS
   @DF-RKS iter   9: -1783.97338825696761   -5.08918e-07   6.29301e-07 DIIS
   @DF-RKS iter  10: -1783.97338828940383   -3.24362e-08   2.91786e-07 DIIS
   @DF-RKS iter  11: -1783.97338829958358   -1.01797e-08   6.75116e-08 DIIS
   @DF-RKS iter  12: -1783.97338830004992   -4.66343e-10   2.22210e-08 DIIS
  Energy and wave function converged.


  ==> Post-Iterations <==

   Electrons on quadrature grid:
      Ntotal   =  222.0001379081 ; deviation = 1.379e-04 

    Orbital Energies [Eh]
    ---------------------

    Doubly Occupied:                                                      

       1A    -24.740261     2A    -24.736887     3A    -24.735444  
       4A    -24.735267     5A    -24.734144     6A    -24.734095  
       7A    -24.732080     8A    -24.727728     9A    -24.727028  
      10A    -24.722367    11A    -19.140899    12A    -14.345876  
      13A    -10.457789    14A    -10.398347    15A    -10.392272  
      16A    -10.382817    17A    -10.332573    18A    -10.302067  
      19A    -10.266951    20A    -10.232267    21A    -10.222340  
      22A    -10.221444    23A    -10.216121    24A    -10.214667  
      25A    -10.213076    26A    -10.212727    27A    -10.212206  
      28A    -10.191449    29A    -10.190047    30A     -1.309617  
      31A     -1.289489    32A     -1.270775    33A     -1.259000  
      34A     -1.231877    35A     -1.221068    36A     -1.218929  
      37A     -1.216360    38A     -1.210938    39A     -1.202955  
      40A     -1.036104    41A     -0.944215    42A     -0.870827  
      43A     -0.867857    44A     -0.811742    45A     -0.780975  
      46A     -0.768418    47A     -0.765338    48A     -0.761407  
      49A     -0.722665    50A     -0.698936    51A     -0.691398  
      52A     -0.659680    53A     -0.653747    54A     -0.639199  
      55A     -0.624240    56A     -0.621077    57A     -0.615848  
      58A     -0.610453    59A     -0.609028    60A     -0.604291  
      61A     -0.593264    62A     -0.587921    63A     -0.576958  
      64A     -0.570768    65A     -0.566094    66A     -0.560773  
      67A     -0.544391    68A     -0.532070    69A     -0.516216  
      70A     -0.511609    71A     -0.492942    72A     -0.487063  
      73A     -0.484790    74A     -0.483902    75A     -0.479708  
      76A     -0.474703    77A     -0.472187    78A     -0.468339  
      79A     -0.467039    80A     -0.463177    81A     -0.458889  
      82A     -0.456730    83A     -0.452186    84A     -0.447379  
      85A     -0.444627    86A     -0.441888    87A     -0.441547  
      88A     -0.439381    89A     -0.435624    90A     -0.433366  
      91A     -0.430082    92A     -0.428795    93A     -0.422345  
      94A     -0.419955    95A     -0.411414    96A     -0.399149  
      97A     -0.398191    98A     -0.396061    99A     -0.384389  
     100A     -0.382842   101A     -0.380942   102A     -0.372689  
     103A     -0.364036   104A     -0.359493   105A     -0.354152  
     106A     -0.340466   107A     -0.319667   108A     -0.292260  
     109A     -0.279290   110A     -0.275886   111A     -0.270022  

    Virtual:                                                              

     112A     -0.061248   113A     -0.032719   114A     -0.018179  
     115A     -0.001613   116A      0.038633   117A      0.055495  
     118A      0.057507   119A      0.067045   120A      0.069866  
     121A      0.074692   122A      0.089411   123A      0.093346  
     124A      0.099948   125A      0.101335   126A      0.109589  
     127A      0.112712   128A      0.121866   129A      0.126189  
     130A      0.135574   131A      0.137360   132A      0.143424  
     133A      0.147672   134A      0.159931   135A      0.162307  
     136A      0.165195   137A      0.173166   138A      0.182968  
     139A      0.194575   140A      0.204613   141A      0.209982  
     142A      0.213877   143A      0.216744   144A      0.219492  
     145A      0.225592   146A      0.238130   147A      0.240157  
     148A      0.241320   149A      0.257377   150A      0.267455  
     151A      0.270553   152A      0.274952   153A      0.280787  
     154A      0.286517   155A      0.300230   156A      0.321398  
     157A      0.329418   158A      0.335544   159A      0.341111  
     160A      0.353143   161A      0.374320   162A      0.376853  
     163A      0.390845   164A      0.398252   165A      0.403312  
     166A      0.412466   167A      0.420131   168A      0.428364  
     169A      0.439744   170A      0.441139   171A      0.445593  
     172A      0.455151   173A      0.465026   174A      0.466093  
     175A      0.471370   176A      0.478301   177A      0.486712  
     178A      0.492543   179A      0.501043   180A      0.505661  
     181A      0.516019   182A      0.529696   183A      0.531837  
     184A      0.542681   185A      0.545385   186A      0.554298  
     187A      0.562487   188A      0.565027   189A      0.577497  
     190A      0.584393   191A      0.591463   192A      0.593676  
     193A      0.596683   194A      0.603928   195A      0.606990  
     196A      0.616122   197A      0.617459   198A      0.624565  
     199A      0.633813   200A      0.636204   201A      0.642656  
     202A      0.644110   203A      0.647723   204A      0.654852  
     205A      0.661573   206A      0.665981   207A      0.669310  
     208A      0.675889   209A      0.677383   210A      0.683518  
     211A      0.691811   212A      0.696881   213A      0.706146  
     214A      0.711957   215A      0.721828   216A      0.726610  
     217A      0.743707   218A      0.745715   219A      0.754107  
     220A      0.758750   221A      0.770453   222A      0.787866  
     223A      0.800415   224A      0.806937   225A      0.815607  
     226A      0.822118   227A      0.828907   228A      0.840981  
     229A      0.862036   230A      0.886201   231A      0.912614  
     232A      0.914579   233A      0.923556   234A      0.948939  
     235A      0.982158   236A      0.995370   237A      1.019835  
     238A      1.036325   239A      1.039218   240A      1.056466  
     241A      1.066203   242A      1.074488   243A      1.078570  
     244A      1.083820   245A      1.099489   246A      1.109311  
     247A      1.116439   248A      1.119684   249A      1.131494  
     250A      1.147317   251A      1.161615   252A      1.178994  
     253A      1.184920   254A      1.194892   255A      1.200790  
     256A      1.214847   257A      1.225424   258A      1.232878  
     259A      1.244408   260A      1.250280   261A      1.259188  
     262A      1.265535   263A      1.271594   264A      1.273294  
     265A      1.283624   266A      1.291434   267A      1.302237  
     268A      1.306587   269A      1.313044   270A      1.319830  
     271A      1.327506   272A      1.335781   273A      1.343827  
     274A      1.352003   275A      1.358127   276A      1.376976  
     277A      1.382427   278A      1.391097   279A      1.395721  
     280A      1.412827   281A      1.426122   282A      1.431671  
     283A      1.440189   284A      1.446561   285A      1.457509  
     286A      1.460304   287A      1.471478   288A      1.479732  
     289A      1.497284   290A      1.502483   291A      1.511570  
     292A      1.518726   293A      1.522822   294A      1.524933  
     295A      1.529843   296A      1.547606   297A      1.559918  
     298A      1.560973   299A      1.575271   300A      1.592356  
     301A      1.606051   302A      1.635239   303A      1.646280  
     304A      1.651946   305A      1.658182   306A      1.670382  
     307A      1.683500   308A      1.691813   309A      1.699833  
     310A      1.702694   311A      1.710899   312A      1.720849  
     313A      1.725373   314A      1.735820   315A      1.740535  
     316A      1.742429   317A      1.748879   318A      1.751402  
     319A      1.760230   320A      1.771169   321A      1.774664  
     322A      1.782281   323A      1.783885   324A      1.794949  
     325A      1.796076   326A      1.812085   327A      1.813436  
     328A      1.817693   329A      1.828297   330A      1.843512  
     331A      1.845753   332A      1.850354   333A      1.866007  
     334A      1.874916   335A      1.876342   336A      1.887674  
     337A      1.892169   338A      1.906956   339A      1.915124  
     340A      1.923720   341A      1.930489   342A      1.935651  
     343A      1.947182   344A      1.956097   345A      1.960282  
     346A      1.968712   347A      1.973194   348A      1.980755  
     349A      1.986890   350A      1.993225   351A      2.001064  
     352A      2.004271   353A      2.025456   354A      2.031395  
     355A      2.043916   356A      2.058667   357A      2.072069  
     358A      2.084693   359A      2.086939   360A      2.098341  
     361A      2.111520   362A      2.126034   363A      2.129995  
     364A      2.139385   365A      2.151329   366A      2.158872  
     367A      2.177502   368A      2.190450   369A      2.198531  
     370A      2.213047   371A      2.234753   372A      2.242421  
     373A      2.257428   374A      2.263844   375A      2.272788  
     376A      2.281019   377A      2.284293   378A      2.298416  
     379A      2.310476   380A      2.313555   381A      2.320632  
     382A      2.333545   383A      2.354752   384A      2.367664  
     385A      2.382300   386A      2.394740   387A      2.397392  
     388A      2.405423   389A      2.427209   390A      2.451432  
     391A      2.474805   392A      2.479280   393A      2.497754  
     394A      2.507385   395A      2.523691   396A      2.553697  
     397A      2.558516   398A      2.569476   399A      2.601154  
     400A      2.604007   401A      2.622451   402A      2.628714  
     403A      2.649518   404A      2.678601   405A      2.698720  
     406A      2.714972   407A      2.719623   408A      2.755146  
     409A      2.776772   410A      2.839745   411A      2.849690  
     412A      2.863875   413A      2.875289   414A      2.882654  
     415A      2.903591   416A      2.909105   417A      2.936686  
     418A      2.972779   419A      2.979026   420A      2.990921  
     421A      3.006563   422A      3.015336   423A      3.024876  
     424A      3.027868   425A      3.028468   426A      3.029077  
     427A      3.030052   428A      3.032011   429A      3.036812  
     430A      3.040018   431A      3.042908   432A      3.045665  
     433A      3.047822   434A      3.053256   435A      3.055356  
     436A      3.061830   437A      3.066756   438A      3.073622  
     439A      3.089807   440A      3.101645   441A      3.108083  
     442A      3.120427   443A      3.132165   444A      3.135113  
     445A      3.150453   446A      3.152345   447A      3.159268  
     448A      3.168807   449A      3.177218   450A      3.193174  
     451A      3.196896   452A      3.201712   453A      3.251366  
     454A      3.275056   455A      3.289804   456A      3.295024  
     457A      3.315590   458A      3.326852   459A      3.341683  
     460A      3.350308   461A      3.366744   462A      3.405200  
     463A      3.414768   464A      3.437795   465A      3.471753  
     466A      3.521493   467A      3.536576   468A      3.544662  
     469A      3.552739   470A      3.612933   471A      3.643201  
     472A      3.662174   473A      3.701085   474A      3.707097  
     475A      3.782580   476A      3.802039   477A      3.850853  
     478A      3.856331   479A      3.863613   480A      3.875225  
     481A      3.890446  

    Final Occupation by Irrep:
              A 
    DOCC [   111 ]
    NA   [   111 ]
    NB   [   111 ]

  @DF-RKS Final Energy: -1783.97338830004992

   => Energetics <=

    Nuclear Repulsion Energy =           3412.9340822381732323
    One-Electron Energy =               -9255.7322356337626843
    Two-Electron Energy =                4235.0687474263213517
    DFT Exchange-Correlation Energy =    -176.1475457189246185
    Empirical Dispersion Energy =          -0.0964366118568163
    VV10 Nonlocal Energy =                  0.0000000000000000
    Total Energy =                      -1783.9733883000501464

Computation Completed


Properties will be evaluated at   0.000000,   0.000000,   0.000000 [a0]

Properties computed using the SCF density matrix


 Multipole Moments:

 ------------------------------------------------------------------------------------
     Multipole            Electronic (a.u.)      Nuclear  (a.u.)        Total (a.u.)
 ------------------------------------------------------------------------------------

 L = 1.  Multiply by 2.5417464519 to convert [e a0] to [Debye]
 Dipole X            :        447.7512405         -445.5051832            2.2460573
 Dipole Y            :        -50.9615827           51.5367778            0.5751952
 Dipole Z            :        -70.0037758           70.0290438            0.0252681
 Magnitude           :                                                    2.3186767

 ------------------------------------------------------------------------------------

*** tstop() called on choehoyun-ui-MacBookAir.local at Mon Aug 10 19:38:23 2026
Module time:
	user time   =     579.41 seconds =       9.66 minutes
	system time =      12.65 seconds =       0.21 minutes
	total time  =         97 seconds =       1.62 minutes
Total time:
	user time   =     579.41 seconds =       9.66 minutes
	system time =      12.65 seconds =       0.21 minutes
	total time  =         97 seconds =       1.62 minutes

    Psi4 stopped on: Monday, 10 August 2026 07:38PM
    Psi4 wall time for execution: 0:01:37.01

*** Psi4 exiting successfully. Buy a developer a beer!
