
    -----------------------------------------------------------------------
          Psi4: An Open-Source Ab Initio Electronic Structure Package
                               Psi4 1.11 release

                         Git: Rev {} zzzzzzz 


    D. G. A. Smith, L. A. Burns, A. C. Simmonett, R. M. Parrish,
    M. C. Schieber, R. Galvelis, P. Kraus, H. Kruse, R. Di Remigio,
    A. Alenaizan, A. M. James, S. Lehtola, J. P. Misiewicz, M. Scheurer,
    R. A. Shaw, J. B. Schriber, Y. Xie, Z. L. Glick, D. A. Sirianni,
    J. S. O'Brien, J. M. Waldrop, A. Kumar, E. G. Hohenstein,
    B. P. Pritchard, B. R. Brooks, H. F. Schaefer III, A. Yu. Sokolov,
    K. Patkowski, A. E. DePrince III, U. Bozkaya, R. A. King,
    F. A. Evangelista, J. M. Turney, T. D. Crawford, C. D. Sherrill,
    J. Chem. Phys. 152(18) 184108 (2020). https://doi.org/10.1063/5.0006002

                            Additional Code Authors
    E. T. Seidl, C. L. Janssen, E. F. Valeev, M. L. Leininger,
    J. F. Gonthier, R. M. Richard, H. R. McAlexander, M. Saitow, X. Wang,
    P. Verma, M. H. Lechner, A. Jiang, S. Behnle, A. G. Heide,
    M. F. Herbst, D. L. Poole, T. Győri, E. C. Mitchell, J. P. Pederson,
    and A. M. Wallace

             Previous Authors, Complete List of Code Contributors,
                       and Citations for Specific Modules
    https://github.com/psi4/psi4/blob/master/codemeta.json
    https://github.com/psi4/psi4/graphs/contributors
    https://psicode.org/psi4manual/master/introduction.html#citing-psifour

    -----------------------------------------------------------------------


    Psi4 started on: Sunday, 09 August 2026 01:11AM

    Process ID: 41278
    Host:       choehoyun-ui-MacBookAir.local
    PSIDATADIR: /Users/hoyoun/micromamba/envs/psi4env/share/psi4
    Memory:     500.0 MiB
    Threads:    1
    Addons:     a̶d̶c̶c̶, a̶m̶b̶i̶t̶, b̶s̶e̶, c̶c̶t̶3̶, c̶f̶o̶u̶r̶, c̶h̶e̶m̶p̶s̶2̶, c̶p̶p̶e̶, d̶d̶x̶, dftd3,
                d̶f̶t̶d̶4̶, dkh, ecpint, einsums, f̶o̶r̶t̶e̶, gauxc, g̶c̶p̶, g̶d̶m̶a̶,
                g̶e̶o̶m̶e̶t̶r̶i̶c̶, g̶p̶u̶_̶d̶f̶c̶c̶, i̶n̶t̶e̶g̶r̶a̶t̶o̶r̶x̶x̶, i̶p̶i̶,
                l̶i̶b̶e̶f̶p̶, m̶d̶i̶, m̶p̶2̶d̶, m̶r̶c̶c̶, ooo, o̶p̶e̶n̶f̶e̶r̶m̶i̶o̶n̶p̶s̶i̶4̶,
                pcmsolver, p̶s̶i̶4̶f̶o̶c̶k̶c̶i̶, p̶s̶i̶x̶a̶s̶, p̶y̶e̶i̶n̶s̶u̶m̶s̶, r̶e̶s̶p̶,
                s̶i̶m̶i̶n̶t̶, s̶n̶s̶m̶p̶2̶, v̶2̶r̶d̶m̶_̶c̶a̶s̶s̶c̶f̶

  ==> Input File <==

--------------------------------------------------------------------------
memory 6 GB
molecule mol {
0 1
C 0.59464638659079 -0.26196944235272 0.00000000000000
C -0.79184347250832 0.31821191100776 0.00000000000000
O -1.80909180632235 -0.32843020195335 0.00000000000000
H 1.14110338868914 0.09693150393770 -0.87811212454345
H 0.56112703638554 -1.35052790803946 0.00000000000000
H 1.14110338868914 0.09693150393770 0.87811212454345
H -0.83704492152395 1.42885263346238 0.00000000000000
units angstrom
no_reorient
no_com
}
set basis def2-TZVP
set scf_type df
set freeze_core true
energy('b3lyp-d3bj')
--------------------------------------------------------------------------

  Memory set to   5.588 GiB by Python driver.

Scratch directory: /tmp/
   => Libint2 <=

    Primary   basis highest AM E, G, H:  7, 6, 3
    Auxiliary basis highest AM E, G, H:  7, 7, 4
    Onebody   basis highest AM E, G, H:  -, -, -
    Solid Harmonics ordering:            Gaussian

*** tstart() called on choehoyun-ui-MacBookAir.local
*** at Sun Aug  9 01:11:32 2026

   => Loading Basis Set <=

    Name: DEF2-TZVP
    Role: ORBITAL
    Keyword: BASIS
    atoms 1-2 entry C          line   123 file /Users/hoyoun/micromamba/envs/psi4env/share/psi4/basis/def2-tzvp.gbs 
    atoms 3   entry O          line   189 file /Users/hoyoun/micromamba/envs/psi4env/share/psi4/basis/def2-tzvp.gbs 
    atoms 4-7 entry H          line    15 file /Users/hoyoun/micromamba/envs/psi4env/share/psi4/basis/def2-tzvp.gbs 

   => B3LYP-D3(BJ): Empirical Dispersion <=

    Grimme's -D3 (BJ-damping) Dispersion Correction
    Grimme S.; Ehrlich S.; Goerigk L. (2011), J. Comput. Chem., 32: 1456

        s6 =       1.000000
        s8 =       1.988900
        a1 =       0.398100
        a2 =       4.421100


         ---------------------------------------------------------
                                   SCF
               by Justin Turney, Rob Parrish, Andy Simmonett
                          and Daniel G. A. Smith
                              RKS Reference
                        1 Threads,   5722 MiB Core
         ---------------------------------------------------------

  ==> Geometry <==

    Molecular point group: cs
    Full point group: Cs

    Geometry (in Angstrom), charge = 0, multiplicity = 1:

       Center              X                  Y                   Z               Mass       
    ------------   -----------------  -----------------  -----------------  -----------------
         C            0.594646386591    -0.261969442353     0.000000000000    12.000000000000
         C           -0.791843472508     0.318211911008     0.000000000000    12.000000000000
         O           -1.809091806322    -0.328430201953     0.000000000000    15.994914619570
         H            1.141103388689     0.096931503938    -0.878112124543     1.007825032230
         H            0.561127036386    -1.350527908039     0.000000000000     1.007825032230
         H            1.141103388689     0.096931503938     0.878112124543     1.007825032230
         H           -0.837044921524     1.428852633462     0.000000000000     1.007825032230

  Running in cs symmetry.

  Rotational constants: A =      1.85316  B =      0.24272  C =      0.22345 [cm^-1]
  Rotational constants: A =  55556.42777  B =   7276.42035  C =   6698.85765 [MHz]
  Nuclear repulsion =   69.721053751326409

  Charge       = 0
  Multiplicity = 1
  Electrons    = 24
  Nalpha       = 12
  Nbeta        = 12

  ==> Algorithm <==

  SCF Algorithm Type is DF.
  DIIS enabled.
  MOM disabled.
  Fractional occupation disabled.
  Guess Type is SAD.
  Energy threshold   = 1.00e-06
  Density threshold  = 1.00e-06
  Integral threshold = 1.00e-12

  ==> Primary Basis <==

  Basis Set: DEF2-TZVP
    Blend: DEF2-TZVP
    Number of shells: 49
    Number of basis functions: 117
    Number of Cartesian functions: 132
    Spherical Harmonics?: true
    Max angular momentum: 3

  ==> DFT Potential <==

   => LibXC <=

    Version 7.1.2
    S. Lehtola, C. Steigemann, M. J. T. Oliveira, and M. A. L. Marques,  SoftwareX 7, 1–5 (2018) (10.1016/j.softx.2017.11.002)

   => Composite Functional: B3LYP-D3BJ2B <= 

    B3LYP-d3bj2b Hyb-GGA Exchange-Correlation Functional

    P. J. Stephens, F. J. Devlin, C. F. Chabalowski, and M. J. Frisch,  J. Phys. Chem. 98, 11623 (1994) (10.1021/j100096a001)

    Deriv               =              1
    GGA                 =           TRUE
    Meta                =          FALSE

    Exchange Hybrid     =           TRUE
    MP2 Hybrid          =          FALSE

   => Exchange Functionals <=

    0.0800   Slater exchange
    0.7200         Becke 88

   => Exact (HF) Exchange <=

    0.2000               HF 

   => Correlation Functionals <=

    0.1900   Vosko, Wilk & Nusair (VWN5_RPA)
    0.8100   Lee, Yang & Parr

   => LibXC Density Thresholds  <==

    XC_HYB_GGA_XC_B3LYP:  1.00E-15 

   => Molecular Quadrature <=

    Radial Scheme          =       TREUTLER
    Pruning Scheme         =           NONE
    Nuclear Scheme         =       TREUTLER

    Blocking Scheme        =         OCTREE
    BS radius alpha        =              1
    Pruning alpha          =              1
    Radial Points          =             75
    Spherical Points       =            302
    Total Points           =         151923
    Total Blocks           =           1183
    Max Points             =            256
    Max Functions          =            116
    Weights Tolerance      =       1.00E-15

   => Loading Basis Set <=

    Name: (DEF2-TZVP AUX)
    Role: JKFIT
    Keyword: DF_BASIS_SCF
    atoms 1-2 entry C          line   198 file /Users/hoyoun/micromamba/envs/psi4env/share/psi4/basis/def2-universal-jkfit.gbs 
    atoms 3   entry O          line   318 file /Users/hoyoun/micromamba/envs/psi4env/share/psi4/basis/def2-universal-jkfit.gbs 
    atoms 4-7 entry H          line    18 file /Users/hoyoun/micromamba/envs/psi4env/share/psi4/basis/def2-universal-jkfit.gbs 

  ==> Integral Setup <==

  DFHelper Memory: AOs need 0.034 GiB; user supplied 3.745 GiB. 
  SCF_SUBTYPE=INCORE selected. In-core MEM_DF algorithm will be used.
  Using in-core AOs.

  ==> MemDFJK: Density-Fitted J/K Matrices <==

    J tasked:                   Yes
    K tasked:                   Yes
    wK tasked:                   No
    OpenMP threads:               1
    Memory [MiB]:              3834
    Algorithm:                 Core
    Schwarz Cutoff:           1E-12
    Mask sparsity (%):       0.2484
    Fitting Condition:        1E-10

   => Auxiliary Basis Set <=

  Basis Set: (DEF2-TZVP AUX)
    Blend: DEF2-UNIVERSAL-JKFIT
    Number of shells: 99
    Number of basis functions: 299
    Number of Cartesian functions: 351
    Spherical Harmonics?: true
    Max angular momentum: 4

  Cached 100.0% of DFT collocation blocks in 0.446 [GiB].

  Minimum eigenvalue in the overlap matrix is 5.3880802691E-04.
  Reciprocal condition number of the overlap matrix is 7.5794667877E-05.
    Using symmetric orthogonalization.

  ==> Pre-Iterations <==

  SCF Guess: Superposition of Atomic Densities via on-the-fly atomic UHF (no occupation information).

   -------------------------
    Irrep   Nso     Nmo    
   -------------------------
     A'        79      79 
     A"        38      38 
   -------------------------
    Total     117     117
   -------------------------

  ==> Iterations <==

                           Total Energy        Delta E     RMS |[F,P]|

   @DF-RKS iter SAD:  -153.30337554413271   -1.53303e+02   0.00000e+00 
   @DF-RKS iter   1:  -153.61302586206645   -3.09650e-01   9.22108e-03 DIIS/ADIIS
   @DF-RKS iter   2:  -153.39514225614045    2.17884e-01   1.20408e-02 DIIS/ADIIS
   @DF-RKS iter   3:  -153.87358072787251   -4.78438e-01   3.18343e-03 DIIS/ADIIS
   @DF-RKS iter   4:  -153.90143427366800   -2.78535e-02   8.92720e-04 DIIS/ADIIS
   @DF-RKS iter   5:  -153.90388776548249   -2.45349e-03   8.79659e-05 DIIS
   @DF-RKS iter   6:  -153.90391649607005   -2.87306e-05   2.35506e-05 DIIS
   @DF-RKS iter   7:  -153.90391812425418   -1.62818e-06   7.83529e-06 DIIS
   @DF-RKS iter   8:  -153.90391834332300   -2.19069e-07   1.26947e-06 DIIS
   @DF-RKS iter   9:  -153.90391834890954   -5.58654e-09   1.59000e-07 DIIS
  Energy and wave function converged.


  ==> Post-Iterations <==

   Electrons on quadrature grid:
      Ntotal   =   23.9999986622 ; deviation = -1.338e-06 

    Orbital Energies [Eh]
    ---------------------

    Doubly Occupied:                                                      

       1Ap   -19.132226     2Ap   -10.270116     3Ap   -10.187532  
       4Ap    -1.057666     5Ap    -0.761891     6Ap    -0.588441  
       7Ap    -0.487571     1App   -0.453977     8Ap    -0.446355  
       9Ap    -0.407447     2App   -0.376023    10Ap    -0.267623  

    Virtual:                                                              

       3App   -0.036507    11Ap     0.038432    12Ap     0.070992  
       4App    0.093717    13Ap     0.101610    14Ap     0.132265  
      15Ap     0.156865     5App    0.205405    16Ap     0.225616  
       6App    0.239647    17Ap     0.255674    18Ap     0.301658  
      19Ap     0.378047    20Ap     0.385515    21Ap     0.410957  
      22Ap     0.420254     7App    0.436920    23Ap     0.453060  
      24Ap     0.523627     8App    0.524121    25Ap     0.553749  
       9App    0.623787    26Ap     0.626632    10App    0.728960  
      27Ap     0.757479    28Ap     0.787827    29Ap     0.909633  
      30Ap     0.967421    11App    0.986170    12App    1.020514  
      31Ap     1.024565    32Ap     1.094177    33Ap     1.228120  
      34Ap     1.387284    13App    1.394572    14App    1.451227  
      35Ap     1.452823    36Ap     1.481060    15App    1.504660  
      37Ap     1.556435    16App    1.582494    38Ap     1.595029  
      39Ap     1.667043    17App    1.803468    40Ap     1.810554  
      41Ap     1.898592    18App    1.912069    42Ap     2.049362  
      43Ap     2.083017    19App    2.089090    44Ap     2.089783  
      45Ap     2.220217    20App    2.267422    46Ap     2.320983  
      21App    2.328161    47Ap     2.413340    48Ap     2.492846  
      22App    2.496265    49Ap     2.554748    23App    2.629577  
      50Ap     2.649291    51Ap     2.672817    52Ap     2.782593  
      24App    2.848865    25App    2.917707    53Ap     2.936166  
      54Ap     2.953642    55Ap     2.997994    26App    3.052481  
      56Ap     3.068964    27App    3.106973    57Ap     3.151520  
      58Ap     3.225964    28App    3.239183    59Ap     3.336254  
      29App    3.377009    60Ap     3.459884    30App    3.493804  
      61Ap     3.550049    31App    3.776504    62Ap     3.779152  
      63Ap     3.863797    32App    3.878857    64Ap     3.939814  
      65Ap     4.120766    33App    4.325740    66Ap     4.337668  
      67Ap     4.368560    68Ap     4.542356    69Ap     4.662596  
      34App    5.171196    70Ap     5.176797    35App    5.546885  
      71Ap     5.640335    36App    6.089512    72Ap     6.303700  
      37App    6.324639    73Ap     6.357793    74Ap     6.427796  
      38App    6.770674    75Ap     6.894539    76Ap     7.027265  
      77Ap    22.240975    78Ap    22.666409    79Ap    43.656240  

    Final Occupation by Irrep:
             Ap   App 
    DOCC [    10,    2 ]
    NA   [    10,    2 ]
    NB   [    10,    2 ]

  @DF-RKS Final Energy:  -153.90391834890954

   => Energetics <=

    Nuclear Repulsion Energy =             69.7210537513264086
    One-Electron Energy =                -346.2005971386776650
    Two-Electron Energy =                 139.5035253306926961
    DFT Exchange-Correlation Energy =     -16.9225188480471402
    Empirical Dispersion Energy =          -0.0053814442038367
    VV10 Nonlocal Energy =                  0.0000000000000000
    Total Energy =                       -153.9039183489095421

Computation Completed


Properties will be evaluated at   0.000000,   0.000000,   0.000000 [a0]

Properties computed using the SCF density matrix


 Multipole Moments:

 ------------------------------------------------------------------------------------
     Multipole            Electronic (a.u.)      Nuclear  (a.u.)        Total (a.u.)
 ------------------------------------------------------------------------------------

 L = 1.  Multiply by 2.5417464519 to convert [e a0] to [Debye]
 Dipole X            :         26.8208460          -25.7940588            1.0267872
 Dipole Y            :          4.2313201           -3.8130876            0.4182325
 Dipole Z            :          0.0000000            0.0000000            0.0000000
 Magnitude           :                                                    1.1086976

 ------------------------------------------------------------------------------------

*** tstop() called on choehoyun-ui-MacBookAir.local at Sun Aug  9 01:11:36 2026
Module time:
	user time   =       3.66 seconds =       0.06 minutes
	system time =       0.19 seconds =       0.00 minutes
	total time  =          4 seconds =       0.07 minutes
Total time:
	user time   =       3.66 seconds =       0.06 minutes
	system time =       0.19 seconds =       0.00 minutes
	total time  =          4 seconds =       0.07 minutes

    Psi4 stopped on: Sunday, 09 August 2026 01:11AM
    Psi4 wall time for execution: 0:00:04.08

*** Psi4 exiting successfully. Buy a developer a beer!
