
    -----------------------------------------------------------------------
          Psi4: An Open-Source Ab Initio Electronic Structure Package
                               Psi4 1.11 release

                         Git: Rev {} zzzzzzz 


    D. G. A. Smith, L. A. Burns, A. C. Simmonett, R. M. Parrish,
    M. C. Schieber, R. Galvelis, P. Kraus, H. Kruse, R. Di Remigio,
    A. Alenaizan, A. M. James, S. Lehtola, J. P. Misiewicz, M. Scheurer,
    R. A. Shaw, J. B. Schriber, Y. Xie, Z. L. Glick, D. A. Sirianni,
    J. S. O'Brien, J. M. Waldrop, A. Kumar, E. G. Hohenstein,
    B. P. Pritchard, B. R. Brooks, H. F. Schaefer III, A. Yu. Sokolov,
    K. Patkowski, A. E. DePrince III, U. Bozkaya, R. A. King,
    F. A. Evangelista, J. M. Turney, T. D. Crawford, C. D. Sherrill,
    J. Chem. Phys. 152(18) 184108 (2020). https://doi.org/10.1063/5.0006002

                            Additional Code Authors
    E. T. Seidl, C. L. Janssen, E. F. Valeev, M. L. Leininger,
    J. F. Gonthier, R. M. Richard, H. R. McAlexander, M. Saitow, X. Wang,
    P. Verma, M. H. Lechner, A. Jiang, S. Behnle, A. G. Heide,
    M. F. Herbst, D. L. Poole, T. Győri, E. C. Mitchell, J. P. Pederson,
    and A. M. Wallace

             Previous Authors, Complete List of Code Contributors,
                       and Citations for Specific Modules
    https://github.com/psi4/psi4/blob/master/codemeta.json
    https://github.com/psi4/psi4/graphs/contributors
    https://psicode.org/psi4manual/master/introduction.html#citing-psifour

    -----------------------------------------------------------------------


    Psi4 started on: Monday, 10 August 2026 06:36PM

    Process ID: 75770
    Host:       choehoyun-ui-MacBookAir.local
    PSIDATADIR: /Users/hoyoun/micromamba/envs/psi4env/share/psi4
    Memory:     500.0 MiB
    Threads:    8
    Addons:     a̶d̶c̶c̶, a̶m̶b̶i̶t̶, b̶s̶e̶, c̶c̶t̶3̶, c̶f̶o̶u̶r̶, c̶h̶e̶m̶p̶s̶2̶, c̶p̶p̶e̶, d̶d̶x̶, dftd3,
                d̶f̶t̶d̶4̶, dkh, ecpint, einsums, f̶o̶r̶t̶e̶, gauxc, g̶c̶p̶, g̶d̶m̶a̶,
                g̶e̶o̶m̶e̶t̶r̶i̶c̶, g̶p̶u̶_̶d̶f̶c̶c̶, i̶n̶t̶e̶g̶r̶a̶t̶o̶r̶x̶x̶, i̶p̶i̶,
                l̶i̶b̶e̶f̶p̶, m̶d̶i̶, m̶p̶2̶d̶, m̶r̶c̶c̶, ooo, o̶p̶e̶n̶f̶e̶r̶m̶i̶o̶n̶p̶s̶i̶4̶,
                pcmsolver, p̶s̶i̶4̶f̶o̶c̶k̶c̶i̶, p̶s̶i̶x̶a̶s̶, p̶y̶e̶i̶n̶s̶u̶m̶s̶, r̶e̶s̶p̶,
                s̶i̶m̶i̶n̶t̶, s̶n̶s̶m̶p̶2̶, v̶2̶r̶d̶m̶_̶c̶a̶s̶s̶c̶f̶

  ==> Input File <==

--------------------------------------------------------------------------
memory 3 GB
molecule mol {
0 1
C 0.22259259194071 1.42799813569254 0.02723212001828
C -0.97436060303120 0.49751728341616 -0.13040233191114
C -0.41680155829099 -0.87383434822413 0.25408915427826
C 1.06882298333542 -0.72158791370553 -0.09552631408967
O 1.36453901114057 0.68260630736087 0.07749465314437
O 0.23335203963534 2.62270411245938 0.09577055963323
H -1.29093805537852 0.53692757575482 -1.17703075460680
H -1.80453107804235 0.84823166488973 0.47961712689246
H -0.53487837852459 -1.04496275843567 1.32593970851677
H -0.88192758173735 -1.70472717022216 -0.27573784787466
H 1.27495165154034 -0.98951293439642 -1.13553098592650
H 1.73917897741262 -1.28135995458958 0.55408491192538
units angstrom
no_reorient
no_com
}
set basis def2-SVP
set scf_type df
set freeze_core true
set e_convergence 8
energy('b3lyp-d3bj')
--------------------------------------------------------------------------

  Memory set to   2.794 GiB by Python driver.

Scratch directory: /Users/hoyoun/Documents/Yonsei_AX_Camp/(진짜_이게_최종)/calibration/dft_work/_scratch/E31/
   => Libint2 <=

    Primary   basis highest AM E, G, H:  7, 6, 3
    Auxiliary basis highest AM E, G, H:  7, 7, 4
    Onebody   basis highest AM E, G, H:  -, -, -
    Solid Harmonics ordering:            Gaussian

*** tstart() called on choehoyun-ui-MacBookAir.local
*** at Mon Aug 10 18:36:42 2026

   => Loading Basis Set <=

    Name: DEF2-SVP
    Role: ORBITAL
    Keyword: BASIS
    atoms 1-4  entry C          line    90 file /Users/hoyoun/micromamba/envs/psi4env/share/psi4/basis/def2-svp.gbs 
    atoms 5-6  entry O          line   130 file /Users/hoyoun/micromamba/envs/psi4env/share/psi4/basis/def2-svp.gbs 
    atoms 7-12 entry H          line    15 file /Users/hoyoun/micromamba/envs/psi4env/share/psi4/basis/def2-svp.gbs 

   => B3LYP-D3(BJ): Empirical Dispersion <=

    Grimme's -D3 (BJ-damping) Dispersion Correction
    Grimme S.; Ehrlich S.; Goerigk L. (2011), J. Comput. Chem., 32: 1456

        s6 =       1.000000
        s8 =       1.988900
        a1 =       0.398100
        a2 =       4.421100


         ---------------------------------------------------------
                                   SCF
               by Justin Turney, Rob Parrish, Andy Simmonett
                          and Daniel G. A. Smith
                              RKS Reference
                        8 Threads,   2861 MiB Core
         ---------------------------------------------------------

  ==> Geometry <==

    Molecular point group: c1
    Full point group: C1

    Geometry (in Angstrom), charge = 0, multiplicity = 1:

       Center              X                  Y                   Z               Mass       
    ------------   -----------------  -----------------  -----------------  -----------------
         C            0.222592591941     1.427998135693     0.027232120018    12.000000000000
         C           -0.974360603031     0.497517283416    -0.130402331911    12.000000000000
         C           -0.416801558291    -0.873834348224     0.254089154278    12.000000000000
         C            1.068822983335    -0.721587913706    -0.095526314090    12.000000000000
         O            1.364539011141     0.682606307361     0.077494653144    15.994914619570
         O            0.233352039635     2.622704112459     0.095770559633    15.994914619570
         H           -1.290938055379     0.536927575755    -1.177030754607     1.007825032230
         H           -1.804531078042     0.848231664890     0.479617126892     1.007825032230
         H           -0.534878378525    -1.044962758436     1.325939708517     1.007825032230
         H           -0.881927581737    -1.704727170222    -0.275737847875     1.007825032230
         H            1.274951651540    -0.989512934396    -1.135530985926     1.007825032230
         H            1.739178977413    -1.281359954590     0.554084911925     1.007825032230

  Running in c1 symmetry.

  Rotational constants: A =      0.22912  B =      0.09556  C =      0.07107 [cm^-1]
  Rotational constants: A =   6868.86391  B =   2864.78585  C =   2130.61427 [MHz]
  Nuclear repulsion =  240.471478738421695

  Charge       = 0
  Multiplicity = 1
  Electrons    = 46
  Nalpha       = 23
  Nbeta        = 23

  ==> Algorithm <==

  SCF Algorithm Type is DF.
  DIIS enabled.
  MOM disabled.
  Fractional occupation disabled.
  Guess Type is SAD.
  Energy threshold   = 1.00e-08
  Density threshold  = 1.00e-06
  Integral threshold = 1.00e-12

  ==> Primary Basis <==

  Basis Set: DEF2-SVP
    Blend: DEF2-SVP
    Number of shells: 54
    Number of basis functions: 114
    Number of Cartesian functions: 120
    Spherical Harmonics?: true
    Max angular momentum: 2

  ==> DFT Potential <==

   => LibXC <=

    Version 7.1.2
    S. Lehtola, C. Steigemann, M. J. T. Oliveira, and M. A. L. Marques,  SoftwareX 7, 1–5 (2018) (10.1016/j.softx.2017.11.002)

   => Composite Functional: B3LYP-D3BJ2B <= 

    B3LYP-d3bj2b Hyb-GGA Exchange-Correlation Functional

    P. J. Stephens, F. J. Devlin, C. F. Chabalowski, and M. J. Frisch,  J. Phys. Chem. 98, 11623 (1994) (10.1021/j100096a001)

    Deriv               =              1
    GGA                 =           TRUE
    Meta                =          FALSE

    Exchange Hybrid     =           TRUE
    MP2 Hybrid          =          FALSE

   => Exchange Functionals <=

    0.0800   Slater exchange
    0.7200         Becke 88

   => Exact (HF) Exchange <=

    0.2000               HF 

   => Correlation Functionals <=

    0.1900   Vosko, Wilk & Nusair (VWN5_RPA)
    0.8100   Lee, Yang & Parr

   => LibXC Density Thresholds  <==

    XC_HYB_GGA_XC_B3LYP:  1.00E-15 

   => Molecular Quadrature <=

    Radial Scheme          =       TREUTLER
    Pruning Scheme         =           NONE
    Nuclear Scheme         =       TREUTLER

    Blocking Scheme        =         OCTREE
    BS radius alpha        =              1
    Pruning alpha          =              1
    Radial Points          =             75
    Spherical Points       =            302
    Total Points           =         253700
    Total Blocks           =           1907
    Max Points             =            256
    Max Functions          =            113
    Weights Tolerance      =       1.00E-15

   => Loading Basis Set <=

    Name: (DEF2-SVP AUX)
    Role: JKFIT
    Keyword: DF_BASIS_SCF
    atoms 1-4  entry C          line   198 file /Users/hoyoun/micromamba/envs/psi4env/share/psi4/basis/def2-universal-jkfit.gbs 
    atoms 5-6  entry O          line   318 file /Users/hoyoun/micromamba/envs/psi4env/share/psi4/basis/def2-universal-jkfit.gbs 
    atoms 7-12 entry H          line    18 file /Users/hoyoun/micromamba/envs/psi4env/share/psi4/basis/def2-universal-jkfit.gbs 

  ==> Integral Setup <==

  DFHelper Memory: AOs need 0.060 GiB; user supplied 1.406 GiB. 
  SCF_SUBTYPE=INCORE selected. In-core MEM_DF algorithm will be used.
  Using in-core AOs.

  ==> MemDFJK: Density-Fitted J/K Matrices <==

    J tasked:                   Yes
    K tasked:                   Yes
    wK tasked:                   No
    OpenMP threads:               8
    Memory [MiB]:              1439
    Algorithm:                 Core
    Schwarz Cutoff:           1E-12
    Mask sparsity (%):       1.1850
    Fitting Condition:        1E-10

   => Auxiliary Basis Set <=

  Basis Set: (DEF2-SVP AUX)
    Blend: DEF2-UNIVERSAL-JKFIT
    Number of shells: 186
    Number of basis functions: 562
    Number of Cartesian functions: 662
    Spherical Harmonics?: true
    Max angular momentum: 4

  Cached 100.0% of DFT collocation blocks in 0.690 [GiB].

  Minimum eigenvalue in the overlap matrix is 1.4484395560E-03.
  Reciprocal condition number of the overlap matrix is 2.2113578526E-04.
    Using symmetric orthogonalization.

  ==> Pre-Iterations <==

  SCF Guess: Superposition of Atomic Densities via on-the-fly atomic UHF (no occupation information).

   -------------------------
    Irrep   Nso     Nmo    
   -------------------------
     A        114     114 
   -------------------------
    Total     114     114
   -------------------------

  ==> Iterations <==

                           Total Energy        Delta E     RMS |[F,P]|

   @DF-RKS iter SAD:  -305.89103022563108   -3.05891e+02   0.00000e+00 
   @DF-RKS iter   1:  -305.94311787076589   -5.20876e-02   7.36808e-03 DIIS/ADIIS
   @DF-RKS iter   2:  -305.75681310364394    1.86305e-01   9.52156e-03 DIIS/ADIIS
   @DF-RKS iter   3:  -306.25661157485382   -4.99798e-01   2.18223e-03 DIIS/ADIIS
   @DF-RKS iter   4:  -306.27996043216336   -2.33489e-02   6.45057e-04 DIIS/ADIIS
   @DF-RKS iter   5:  -306.28199479296171   -2.03436e-03   1.56071e-04 DIIS/ADIIS
   @DF-RKS iter   6:  -306.28210145175399   -1.06659e-04   7.03823e-05 DIIS
   @DF-RKS iter   7:  -306.28212554471708   -2.40930e-05   1.34741e-05 DIIS
   @DF-RKS iter   8:  -306.28212653945741   -9.94740e-07   2.75005e-06 DIIS
   @DF-RKS iter   9:  -306.28212658302601   -4.35686e-08   5.04630e-07 DIIS
   @DF-RKS iter  10:  -306.28212658442033   -1.39431e-09   1.96508e-07 DIIS
  Energy and wave function converged.


  ==> Post-Iterations <==

   Electrons on quadrature grid:
      Ntotal   =   45.9999992835 ; deviation = -7.165e-07 

    Orbital Energies [Eh]
    ---------------------

    Doubly Occupied:                                                      

       1A    -19.173778     2A    -19.116394     3A    -10.310667  
       4A    -10.257052     5A    -10.212345     6A    -10.210888  
       7A     -1.090598     8A     -1.012035     9A     -0.807636  
      10A     -0.731227    11A     -0.631113    12A     -0.560671  
      13A     -0.526127    14A     -0.504976    15A     -0.455817  
      16A     -0.445817    17A     -0.426420    18A     -0.410855  
      19A     -0.385393    20A     -0.360941    21A     -0.356621  
      22A     -0.300136    23A     -0.271127  

    Virtual:                                                              

      24A      0.007506    25A      0.040714    26A      0.072055  
      27A      0.085453    28A      0.101425    29A      0.124062  
      30A      0.135473    31A      0.153554    32A      0.185260  
      33A      0.187919    34A      0.247995    35A      0.280523  
      36A      0.355011    37A      0.381829    38A      0.421273  
      39A      0.445908    40A      0.455213    41A      0.498550  
      42A      0.521725    43A      0.549018    44A      0.570297  
      45A      0.589464    46A      0.612844    47A      0.619368  
      48A      0.633715    49A      0.646816    50A      0.651014  
      51A      0.661356    52A      0.674954    53A      0.686760  
      54A      0.698530    55A      0.704023    56A      0.836578  
      57A      0.881921    58A      0.928035    59A      1.010866  
      60A      1.053132    61A      1.071151    62A      1.103815  
      63A      1.126418    64A      1.235995    65A      1.283932  
      66A      1.315915    67A      1.352584    68A      1.435050  
      69A      1.522223    70A      1.549380    71A      1.578783  
      72A      1.601045    73A      1.652397    74A      1.680305  
      75A      1.711978    76A      1.729667    77A      1.737545  
      78A      1.762748    79A      1.778212    80A      1.792956  
      81A      1.813643    82A      1.859183    83A      1.873699  
      84A      1.896799    85A      1.940551    86A      1.955005  
      87A      1.987787    88A      2.069156    89A      2.108672  
      90A      2.149854    91A      2.235890    92A      2.275653  
      93A      2.314895    94A      2.377504    95A      2.429439  
      96A      2.514831    97A      2.622300    98A      2.644527  
      99A      2.648077   100A      2.684303   101A      2.738239  
     102A      2.783970   103A      2.808784   104A      2.886036  
     105A      2.919041   106A      2.963234   107A      2.985005  
     108A      3.036207   109A      3.043049   110A      3.214599  
     111A      3.228238   112A      3.310315   113A      3.619571  
     114A      3.659727  

    Final Occupation by Irrep:
              A 
    DOCC [    23 ]
    NA   [    23 ]
    NB   [    23 ]

  @DF-RKS Final Energy:  -306.28212658442033

   => Energetics <=

    Nuclear Repulsion Energy =            240.4714787384216947
    One-Electron Energy =                -892.4570766284955425
    Two-Electron Energy =                 378.9909226762647450
    DFT Exchange-Correlation Energy =     -33.2720652102663621
    Empirical Dispersion Energy =          -0.0153861603447812
    VV10 Nonlocal Energy =                  0.0000000000000000
    Total Energy =                       -306.2821265844203253

Computation Completed


Properties will be evaluated at   0.000000,   0.000000,   0.000000 [a0]

Properties computed using the SCF density matrix


 Multipole Moments:

 ------------------------------------------------------------------------------------
     Multipole            Electronic (a.u.)      Nuclear  (a.u.)        Total (a.u.)
 ------------------------------------------------------------------------------------

 L = 1.  Multiply by 2.5417464519 to convert [e a0] to [Debye]
 Dipole X            :        -20.7556150           20.1945666           -0.5610484
 Dipole Y            :        -48.4988913           46.8418485           -1.6570428
 Dipole Z            :         -2.9667881            2.8153511           -0.1514370
 Magnitude           :                                                    1.7559896

 ------------------------------------------------------------------------------------

*** tstop() called on choehoyun-ui-MacBookAir.local at Mon Aug 10 18:36:43 2026
Module time:
	user time   =       8.10 seconds =       0.13 minutes
	system time =       0.28 seconds =       0.00 minutes
	total time  =          1 seconds =       0.02 minutes
Total time:
	user time   =       8.10 seconds =       0.13 minutes
	system time =       0.28 seconds =       0.00 minutes
	total time  =          1 seconds =       0.02 minutes

    Psi4 stopped on: Monday, 10 August 2026 06:36PM
    Psi4 wall time for execution: 0:00:01.76

*** Psi4 exiting successfully. Buy a developer a beer!
