
    -----------------------------------------------------------------------
          Psi4: An Open-Source Ab Initio Electronic Structure Package
                               Psi4 1.11 release

                         Git: Rev {} zzzzzzz 


    D. G. A. Smith, L. A. Burns, A. C. Simmonett, R. M. Parrish,
    M. C. Schieber, R. Galvelis, P. Kraus, H. Kruse, R. Di Remigio,
    A. Alenaizan, A. M. James, S. Lehtola, J. P. Misiewicz, M. Scheurer,
    R. A. Shaw, J. B. Schriber, Y. Xie, Z. L. Glick, D. A. Sirianni,
    J. S. O'Brien, J. M. Waldrop, A. Kumar, E. G. Hohenstein,
    B. P. Pritchard, B. R. Brooks, H. F. Schaefer III, A. Yu. Sokolov,
    K. Patkowski, A. E. DePrince III, U. Bozkaya, R. A. King,
    F. A. Evangelista, J. M. Turney, T. D. Crawford, C. D. Sherrill,
    J. Chem. Phys. 152(18) 184108 (2020). https://doi.org/10.1063/5.0006002

                            Additional Code Authors
    E. T. Seidl, C. L. Janssen, E. F. Valeev, M. L. Leininger,
    J. F. Gonthier, R. M. Richard, H. R. McAlexander, M. Saitow, X. Wang,
    P. Verma, M. H. Lechner, A. Jiang, S. Behnle, A. G. Heide,
    M. F. Herbst, D. L. Poole, T. Győri, E. C. Mitchell, J. P. Pederson,
    and A. M. Wallace

             Previous Authors, Complete List of Code Contributors,
                       and Citations for Specific Modules
    https://github.com/psi4/psi4/blob/master/codemeta.json
    https://github.com/psi4/psi4/graphs/contributors
    https://psicode.org/psi4manual/master/introduction.html#citing-psifour

    -----------------------------------------------------------------------


    Psi4 started on: Sunday, 09 August 2026 03:27AM

    Process ID: 52372
    Host:       choehoyun-ui-MacBookAir.local
    PSIDATADIR: /Users/hoyoun/micromamba/envs/psi4env/share/psi4
    Memory:     500.0 MiB
    Threads:    8
    Addons:     a̶d̶c̶c̶, a̶m̶b̶i̶t̶, b̶s̶e̶, c̶c̶t̶3̶, c̶f̶o̶u̶r̶, c̶h̶e̶m̶p̶s̶2̶, c̶p̶p̶e̶, d̶d̶x̶, dftd3,
                d̶f̶t̶d̶4̶, dkh, ecpint, einsums, f̶o̶r̶t̶e̶, gauxc, g̶c̶p̶, g̶d̶m̶a̶,
                g̶e̶o̶m̶e̶t̶r̶i̶c̶, g̶p̶u̶_̶d̶f̶c̶c̶, i̶n̶t̶e̶g̶r̶a̶t̶o̶r̶x̶x̶, i̶p̶i̶,
                l̶i̶b̶e̶f̶p̶, m̶d̶i̶, m̶p̶2̶d̶, m̶r̶c̶c̶, ooo, o̶p̶e̶n̶f̶e̶r̶m̶i̶o̶n̶p̶s̶i̶4̶,
                pcmsolver, p̶s̶i̶4̶f̶o̶c̶k̶c̶i̶, p̶s̶i̶x̶a̶s̶, p̶y̶e̶i̶n̶s̶u̶m̶s̶, r̶e̶s̶p̶,
                s̶i̶m̶i̶n̶t̶, s̶n̶s̶m̶p̶2̶, v̶2̶r̶d̶m̶_̶c̶a̶s̶s̶c̶f̶

  ==> Input File <==

--------------------------------------------------------------------------
memory 3 GB
molecule mol {
0 1
C 2.65579810827198 -0.41743494509951 0.70736099336995
C 2.07170317729998 0.41814691377756 -0.26030374840606
C 2.90922804049750 1.08269723067110 -1.18066374251585
C 4.28573185415266 0.91344027323114 -1.13205727111603
C 4.86207466583915 0.07467020987483 -0.16015337698373
C 4.03562449687684 -0.59291529971642 0.76438347299958
C 0.62049251336199 0.57321573749096 -0.29004507085943
N -0.23569405465858 0.01352860887463 0.47941245420233
C -1.56480601838405 0.47840976193056 0.07112196831688
C -1.27755304176288 1.42214972183675 -1.11740990601657
O 0.11342858989008 1.43369953797128 -1.27214136869770
C -2.14159394750357 1.32481106376420 1.27110405261720
C -3.55295302958513 1.80032075846890 1.12559594601484
F -4.47059044753709 0.86582632743578 1.51928389731560
C -2.49003059326064 -0.68554526288296 -0.29671641799693
C -2.28979321413819 -1.94036548981028 0.29718878415948
C -3.16186191892418 -2.99707620785716 0.02352694386507
C -4.24160045065934 -2.81329229413386 -0.84576024879843
C -4.44399308999201 -1.56312831981030 -1.43714853747634
C -3.57574481183549 -0.50239371853934 -1.16476130462786
O -1.99219809411474 2.08983771613488 -1.80897682465667
O 6.22017097275560 -0.02590839567815 -0.19519686270672
C 6.85920279828544 -0.86949166933344 0.77281120753099
C -3.97050306756530 2.98694988551304 0.69334607678364
H -5.02912029020030 3.22341587259910 0.63696943791449
H -3.24345013281321 3.72340854280862 0.36818073943650
H -1.44715750662329 -2.08337057375700 0.96717443460520
H -2.99461228493916 -3.96613403037391 0.49030124227562
H -4.91948636085172 -3.63743235245492 -1.05997836406692
H -5.28196492540966 -1.40799299936857 -2.11401384665373
H -3.74829507163963 0.46753437864747 -1.62004424559458
H -2.06563362372475 0.67706115030763 2.15188974261471
H -1.48324882150450 2.18779189483463 1.42377304198401
H 2.47291619956392 1.73078358642726 -1.93500619942335
H 4.93766221581572 1.42076648375510 -1.83842440117669
H 4.45891595180012 -1.24450815217882 1.52214615409190
H 2.01110014991821 -0.92971572157896 1.41658079858215
H 7.92927458254195 -0.80197292449861 0.56105362158883
H 6.52194280306492 -1.91151746024389 0.67018240616260
H 6.65661767769126 -0.51826983903931 1.79541432134202
units angstrom
no_reorient
no_com
}
set basis def2-TZVP
set scf_type disk_df
set freeze_core true
set e_convergence 8
energy('b3lyp-d3bj')
--------------------------------------------------------------------------

  Memory set to   2.794 GiB by Python driver.

Scratch directory: /Users/hoyoun/Documents/Yonsei_AX_Camp/(진짜_이게_최종)/calibration/dft_work/_scratch/i12p/
   => Libint2 <=

    Primary   basis highest AM E, G, H:  7, 6, 3
    Auxiliary basis highest AM E, G, H:  7, 7, 4
    Onebody   basis highest AM E, G, H:  -, -, -
    Solid Harmonics ordering:            Gaussian

*** tstart() called on choehoyun-ui-MacBookAir.local
*** at Sun Aug  9 03:27:59 2026

   => Loading Basis Set <=

    Name: DEF2-TZVP
    Role: ORBITAL
    Keyword: BASIS
    atoms 1-7, 9-10, 12-13, 15-20, 23-24 entry C          line   123 file /Users/hoyoun/micromamba/envs/psi4env/share/psi4/basis/def2-tzvp.gbs 
    atoms 8                              entry N          line   156 file /Users/hoyoun/micromamba/envs/psi4env/share/psi4/basis/def2-tzvp.gbs 
    atoms 11, 21-22                      entry O          line   189 file /Users/hoyoun/micromamba/envs/psi4env/share/psi4/basis/def2-tzvp.gbs 
    atoms 14                             entry F          line   222 file /Users/hoyoun/micromamba/envs/psi4env/share/psi4/basis/def2-tzvp.gbs 
    atoms 25-40                          entry H          line    15 file /Users/hoyoun/micromamba/envs/psi4env/share/psi4/basis/def2-tzvp.gbs 

   => B3LYP-D3(BJ): Empirical Dispersion <=

    Grimme's -D3 (BJ-damping) Dispersion Correction
    Grimme S.; Ehrlich S.; Goerigk L. (2011), J. Comput. Chem., 32: 1456

        s6 =       1.000000
        s8 =       1.988900
        a1 =       0.398100
        a2 =       4.421100


         ---------------------------------------------------------
                                   SCF
               by Justin Turney, Rob Parrish, Andy Simmonett
                          and Daniel G. A. Smith
                              RKS Reference
                        8 Threads,   2861 MiB Core
         ---------------------------------------------------------

  ==> Geometry <==

    Molecular point group: c1
    Full point group: C1

    Geometry (in Angstrom), charge = 0, multiplicity = 1:

       Center              X                  Y                   Z               Mass       
    ------------   -----------------  -----------------  -----------------  -----------------
         C            2.655798108272    -0.417434945100     0.707360993370    12.000000000000
         C            2.071703177300     0.418146913778    -0.260303748406    12.000000000000
         C            2.909228040498     1.082697230671    -1.180663742516    12.000000000000
         C            4.285731854153     0.913440273231    -1.132057271116    12.000000000000
         C            4.862074665839     0.074670209875    -0.160153376984    12.000000000000
         C            4.035624496877    -0.592915299716     0.764383473000    12.000000000000
         C            0.620492513362     0.573215737491    -0.290045070859    12.000000000000
         N           -0.235694054659     0.013528608875     0.479412454202    14.003074004430
         C           -1.564806018384     0.478409761931     0.071121968317    12.000000000000
         C           -1.277553041763     1.422149721837    -1.117409906017    12.000000000000
         O            0.113428589890     1.433699537971    -1.272141368698    15.994914619570
         C           -2.141593947504     1.324811063764     1.271104052617    12.000000000000
         C           -3.552953029585     1.800320758469     1.125595946015    12.000000000000
         F           -4.470590447537     0.865826327436     1.519283897316    18.998403162730
         C           -2.490030593261    -0.685545262883    -0.296716417997    12.000000000000
         C           -2.289793214138    -1.940365489810     0.297188784159    12.000000000000
         C           -3.161861918924    -2.997076207857     0.023526943865    12.000000000000
         C           -4.241600450659    -2.813292294134    -0.845760248798    12.000000000000
         C           -4.443993089992    -1.563128319810    -1.437148537476    12.000000000000
         C           -3.575744811835    -0.502393718539    -1.164761304628    12.000000000000
         O           -1.992198094115     2.089837716135    -1.808976824657    15.994914619570
         O            6.220170972756    -0.025908395678    -0.195196862707    15.994914619570
         C            6.859202798285    -0.869491669333     0.772811207531    12.000000000000
         C           -3.970503067565     2.986949885513     0.693346076784    12.000000000000
         H           -5.029120290200     3.223415872599     0.636969437914     1.007825032230
         H           -3.243450132813     3.723408542809     0.368180739436     1.007825032230
         H           -1.447157506623    -2.083370573757     0.967174434605     1.007825032230
         H           -2.994612284939    -3.966134030374     0.490301242276     1.007825032230
         H           -4.919486360852    -3.637432352455    -1.059978364067     1.007825032230
         H           -5.281964925410    -1.407992999369    -2.114013846654     1.007825032230
         H           -3.748295071640     0.467534378647    -1.620044245595     1.007825032230
         H           -2.065633623725     0.677061150308     2.151889742615     1.007825032230
         H           -1.483248821505     2.187791894835     1.423773041984     1.007825032230
         H            2.472916199564     1.730783586427    -1.935006199423     1.007825032230
         H            4.937662215816     1.420766483755    -1.838424401177     1.007825032230
         H            4.458915951800    -1.244508152179     1.522146154092     1.007825032230
         H            2.011100149918    -0.929715721579     1.416580798582     1.007825032230
         H            7.929274582542    -0.801972924499     0.561053621589     1.007825032230
         H            6.521942803065    -1.911517460244     0.670182406163     1.007825032230
         H            6.656617677691    -0.518269839039     1.795414321342     1.007825032230

  Running in c1 symmetry.

  Rotational constants: A =      0.01621  B =      0.00373  C =      0.00342 [cm^-1]
  Rotational constants: A =    486.01035  B =    111.72050  C =    102.63301 [MHz]
  Nuclear repulsion = 1947.043228450147581

  Charge       = 0
  Multiplicity = 1
  Electrons    = 170
  Nalpha       = 85
  Nbeta        = 85

  ==> Algorithm <==

  SCF Algorithm Type is DISK_DF.
  DIIS enabled.
  MOM disabled.
  Fractional occupation disabled.
  Guess Type is SAD.
  Energy threshold   = 1.00e-08
  Density threshold  = 1.00e-06
  Integral threshold = 1.00e-12

  ==> Primary Basis <==

  Basis Set: DEF2-TZVP
    Blend: DEF2-TZVP
    Number of shells: 328
    Number of basis functions: 840
    Number of Cartesian functions: 960
    Spherical Harmonics?: true
    Max angular momentum: 3

  ==> DFT Potential <==

   => LibXC <=

    Version 7.1.2
    S. Lehtola, C. Steigemann, M. J. T. Oliveira, and M. A. L. Marques,  SoftwareX 7, 1–5 (2018) (10.1016/j.softx.2017.11.002)

   => Composite Functional: B3LYP-D3BJ2B <= 

    B3LYP-d3bj2b Hyb-GGA Exchange-Correlation Functional

    P. J. Stephens, F. J. Devlin, C. F. Chabalowski, and M. J. Frisch,  J. Phys. Chem. 98, 11623 (1994) (10.1021/j100096a001)

    Deriv               =              1
    GGA                 =           TRUE
    Meta                =          FALSE

    Exchange Hybrid     =           TRUE
    MP2 Hybrid          =          FALSE

   => Exchange Functionals <=

    0.0800   Slater exchange
    0.7200         Becke 88

   => Exact (HF) Exchange <=

    0.2000               HF 

   => Correlation Functionals <=

    0.1900   Vosko, Wilk & Nusair (VWN5_RPA)
    0.8100   Lee, Yang & Parr

   => LibXC Density Thresholds  <==

    XC_HYB_GGA_XC_B3LYP:  1.00E-15 

   => Molecular Quadrature <=

    Radial Scheme          =       TREUTLER
    Pruning Scheme         =           NONE
    Nuclear Scheme         =       TREUTLER

    Blocking Scheme        =         OCTREE
    BS radius alpha        =              1
    Pruning alpha          =              1
    Radial Points          =             75
    Spherical Points       =            302
    Total Points           =         824465
    Total Blocks           =           5836
    Max Points             =            256
    Max Functions          =            579
    Weights Tolerance      =       1.00E-15

   => Loading Basis Set <=

    Name: (DEF2-TZVP AUX)
    Role: JKFIT
    Keyword: DF_BASIS_SCF
    atoms 1-7, 9-10, 12-13, 15-20, 23-24 entry C          line   198 file /Users/hoyoun/micromamba/envs/psi4env/share/psi4/basis/def2-universal-jkfit.gbs 
    atoms 8                              entry N          line   258 file /Users/hoyoun/micromamba/envs/psi4env/share/psi4/basis/def2-universal-jkfit.gbs 
    atoms 11, 21-22                      entry O          line   318 file /Users/hoyoun/micromamba/envs/psi4env/share/psi4/basis/def2-universal-jkfit.gbs 
    atoms 14                             entry F          line   378 file /Users/hoyoun/micromamba/envs/psi4env/share/psi4/basis/def2-universal-jkfit.gbs 
    atoms 25-40                          entry H          line    18 file /Users/hoyoun/micromamba/envs/psi4env/share/psi4/basis/def2-universal-jkfit.gbs 

  ==> Integral Setup <==

  ==> DiskDFJK: Density-Fitted J/K Matrices <==

    J tasked:                  Yes
    K tasked:                  Yes
    wK tasked:                  No
    OpenMP threads:              8
    Integrals threads:           8
    Memory [MiB]:             1931
    Algorithm:                Disk
    Integral Cache:           NONE
    Schwarz Cutoff:          1E-12
    Fitting Condition:       1E-10

   => Auxiliary Basis Set <=

  Basis Set: (DEF2-TZVP AUX)
    Blend: DEF2-UNIVERSAL-JKFIT
    Number of shells: 696
    Number of basis functions: 2098
    Number of Cartesian functions: 2476
    Spherical Harmonics?: true
    Max angular momentum: 4

  Cached 2.6% of DFT collocation blocks in 0.212 [GiB].

  Minimum eigenvalue in the overlap matrix is 7.7894802196E-06.
  Reciprocal condition number of the overlap matrix is 7.1811361530E-07.
    Using symmetric orthogonalization.

  ==> Pre-Iterations <==

  SCF Guess: Superposition of Atomic Densities via on-the-fly atomic UHF (no occupation information).

   -------------------------
    Irrep   Nso     Nmo    
   -------------------------
     A        840     840 
   -------------------------
    Total     840     840
   -------------------------

  ==> Iterations <==

                           Total Energy        Delta E     RMS |[F,P]|

   @DF-RKS iter SAD: -1113.36393689418787   -1.11336e+03   0.00000e+00 
   @DF-RKS iter   1: -1112.90366606535940    4.60271e-01   2.09638e-03 DIIS/ADIIS
   @DF-RKS iter   2: -1112.13510495063156    7.68561e-01   2.55220e-03 DIIS/ADIIS
   @DF-RKS iter   3: -1114.29704565551606   -2.16194e+00   6.34705e-04 DIIS/ADIIS
   @DF-RKS iter   4: -1114.38997791577412   -9.29323e-02   2.89260e-04 DIIS/ADIIS
   @DF-RKS iter   5: -1114.41095114342829   -2.09732e-02   8.53360e-05 DIIS
   @DF-RKS iter   6: -1114.41290794059546   -1.95680e-03   2.83562e-05 DIIS
   @DF-RKS iter   7: -1114.41311501213727   -2.07072e-04   1.23492e-05 DIIS
   @DF-RKS iter   8: -1114.41315746676651   -4.24546e-05   2.81513e-06 DIIS
   @DF-RKS iter   9: -1114.41315935200805   -1.88524e-06   1.35789e-06 DIIS
   @DF-RKS iter  10: -1114.41315991156421   -5.59556e-07   3.53418e-07 DIIS
   @DF-RKS iter  11: -1114.41315994747970   -3.59155e-08   1.43145e-07 DIIS
   @DF-RKS iter  12: -1114.41315995420132   -6.72162e-09   3.95496e-08 DIIS
  Energy and wave function converged.


  ==> Post-Iterations <==

   Electrons on quadrature grid:
      Ntotal   =  170.0001234535 ; deviation = 1.235e-04 

    Orbital Energies [Eh]
    ---------------------

    Doubly Occupied:                                                      

       1A    -24.683108     2A    -19.200886     3A    -19.180693  
       4A    -19.139855     5A    -14.320228     6A    -10.321408  
       7A    -10.290114     8A    -10.261717     9A    -10.261078  
      10A    -10.251089    11A    -10.245219    12A    -10.205157  
      13A    -10.204878    14A    -10.201720    15A    -10.200885  
      16A    -10.196485    17A    -10.193870    18A    -10.191563  
      19A    -10.177413    20A    -10.176833    21A    -10.176325  
      22A    -10.176242    23A    -10.174931    24A    -10.170699  
      25A     -1.213154    26A     -1.135848    27A     -1.085923  
      28A     -1.059387    29A     -0.939209    30A     -0.878518  
      31A     -0.857852    32A     -0.821320    33A     -0.792429  
      34A     -0.772596    35A     -0.768182    36A     -0.746048  
      37A     -0.736444    38A     -0.722206    39A     -0.690075  
      40A     -0.652503    41A     -0.629655    42A     -0.617592  
      43A     -0.609424    44A     -0.597493    45A     -0.583200  
      46A     -0.570163    47A     -0.556566    48A     -0.534979  
      49A     -0.521546    50A     -0.502629    51A     -0.496382  
      52A     -0.493242    53A     -0.488970    54A     -0.488409  
      55A     -0.478422    56A     -0.469538    57A     -0.463540  
      58A     -0.460665    59A     -0.452577    60A     -0.445395  
      61A     -0.437631    62A     -0.433432    63A     -0.432820  
      64A     -0.422480    65A     -0.413592    66A     -0.409429  
      67A     -0.407275    68A     -0.399231    69A     -0.393473  
      70A     -0.389041    71A     -0.382556    72A     -0.374332  
      73A     -0.362306    74A     -0.356535    75A     -0.350729  
      76A     -0.347723    77A     -0.345909    78A     -0.325202  
      79A     -0.299854    80A     -0.281930    81A     -0.279077  
      82A     -0.265983    83A     -0.255676    84A     -0.249165  
      85A     -0.241135  

    Virtual:                                                              

      86A     -0.065464    87A     -0.032813    88A     -0.027817  
      89A     -0.015035    90A     -0.009599    91A      0.000819  
      92A      0.026234    93A      0.039686    94A      0.042641  
      95A      0.049591    96A      0.054375    97A      0.063006  
      98A      0.068532    99A      0.080023   100A      0.084027  
     101A      0.085328   102A      0.089929   103A      0.093337  
     104A      0.097756   105A      0.099676   106A      0.105590  
     107A      0.111079   108A      0.112321   109A      0.116515  
     110A      0.123966   111A      0.128725   112A      0.133518  
     113A      0.139419   114A      0.146291   115A      0.150948  
     116A      0.152955   117A      0.164974   118A      0.167694  
     119A      0.174482   120A      0.185173   121A      0.186916  
     122A      0.191581   123A      0.195584   124A      0.201220  
     125A      0.203227   126A      0.208596   127A      0.212166  
     128A      0.215703   129A      0.219912   130A      0.221017  
     131A      0.223245   132A      0.229509   133A      0.234706  
     134A      0.237369   135A      0.241978   136A      0.244581  
     137A      0.246189   138A      0.257828   139A      0.262127  
     140A      0.265102   141A      0.268748   142A      0.271827  
     143A      0.274950   144A      0.281349   145A      0.287442  
     146A      0.289248   147A      0.295544   148A      0.301587  
     149A      0.306391   150A      0.315815   151A      0.319154  
     152A      0.322027   153A      0.326820   154A      0.328668  
     155A      0.332811   156A      0.333774   157A      0.340756  
     158A      0.342704   159A      0.346948   160A      0.353108  
     161A      0.359553   162A      0.360620   163A      0.365265  
     164A      0.368221   165A      0.379639   166A      0.382932  
     167A      0.385168   168A      0.386500   169A      0.388912  
     170A      0.393736   171A      0.398214   172A      0.401658  
     173A      0.403995   174A      0.408496   175A      0.411933  
     176A      0.415057   177A      0.418183   178A      0.420639  
     179A      0.426893   180A      0.428140   181A      0.430290  
     182A      0.437631   183A      0.439922   184A      0.445621  
     185A      0.446664   186A      0.453548   187A      0.458384  
     188A      0.459758   189A      0.465268   190A      0.470827  
     191A      0.474296   192A      0.480826   193A      0.484836  
     194A      0.490765   195A      0.492124   196A      0.497476  
     197A      0.500071   198A      0.506399   199A      0.509621  
     200A      0.520384   201A      0.526133   202A      0.541847  
     203A      0.546474   204A      0.554251   205A      0.555574  
     206A      0.559542   207A      0.568853   208A      0.574326  
     209A      0.583212   210A      0.587656   211A      0.593121  
     212A      0.602618   213A      0.606021   214A      0.611097  
     215A      0.615870   216A      0.622290   217A      0.625152  
     218A      0.628943   219A      0.641799   220A      0.645694  
     221A      0.651360   222A      0.656278   223A      0.657343  
     224A      0.667420   225A      0.667805   226A      0.678055  
     227A      0.679282   228A      0.685915   229A      0.686742  
     230A      0.692239   231A      0.703509   232A      0.705518  
     233A      0.711496   234A      0.715975   235A      0.719760  
     236A      0.729543   237A      0.731759   238A      0.740081  
     239A      0.755792   240A      0.759993   241A      0.763130  
     242A      0.768439   243A      0.772415   244A      0.781831  
     245A      0.783678   246A      0.788726   247A      0.791097  
     248A      0.803315   249A      0.811774   250A      0.814880  
     251A      0.826345   252A      0.834669   253A      0.836038  
     254A      0.839056   255A      0.841834   256A      0.847044  
     257A      0.855463   258A      0.864351   259A      0.867589  
     260A      0.870042   261A      0.882997   262A      0.893389  
     263A      0.897898   264A      0.908045   265A      0.911712  
     266A      0.916703   267A      0.931821   268A      0.938197  
     269A      0.942274   270A      0.950906   271A      0.957114  
     272A      0.966066   273A      0.968551   274A      0.974239  
     275A      0.984299   276A      0.988422   277A      0.997034  
     278A      1.006903   279A      1.012665   280A      1.016753  
     281A      1.027828   282A      1.034548   283A      1.040829  
     284A      1.049795   285A      1.052515   286A      1.055436  
     287A      1.061612   288A      1.067971   289A      1.076975  
     290A      1.078090   291A      1.086886   292A      1.094350  
     293A      1.110437   294A      1.120916   295A      1.137740  
     296A      1.141048   297A      1.154553   298A      1.160808  
     299A      1.169500   300A      1.179286   301A      1.186040  
     302A      1.190882   303A      1.199211   304A      1.210455  
     305A      1.213865   306A      1.216647   307A      1.225339  
     308A      1.227084   309A      1.232703   310A      1.243931  
     311A      1.246974   312A      1.252215   313A      1.263699  
     314A      1.272055   315A      1.282026   316A      1.289439  
     317A      1.294044   318A      1.298740   319A      1.309991  
     320A      1.320546   321A      1.326926   322A      1.330294  
     323A      1.333531   324A      1.344183   325A      1.361407  
     326A      1.366969   327A      1.369505   328A      1.379558  
     329A      1.400433   330A      1.408808   331A      1.415968  
     332A      1.420524   333A      1.425797   334A      1.435589  
     335A      1.447314   336A      1.453339   337A      1.457023  
     338A      1.460230   339A      1.469785   340A      1.473108  
     341A      1.482959   342A      1.486126   343A      1.489764  
     344A      1.496125   345A      1.502661   346A      1.505299  
     347A      1.507772   348A      1.520459   349A      1.525186  
     350A      1.534252   351A      1.535743   352A      1.541077  
     353A      1.552863   354A      1.563066   355A      1.570828  
     356A      1.572729   357A      1.585429   358A      1.592839  
     359A      1.602454   360A      1.605932   361A      1.613468  
     362A      1.621118   363A      1.623851   364A      1.630514  
     365A      1.638552   366A      1.639350   367A      1.646905  
     368A      1.656517   369A      1.664338   370A      1.673967  
     371A      1.675114   372A      1.684875   373A      1.691512  
     374A      1.696622   375A      1.700080   376A      1.714367  
     377A      1.718019   378A      1.725185   379A      1.735932  
     380A      1.738007   381A      1.740703   382A      1.749915  
     383A      1.765160   384A      1.776564   385A      1.798228  
     386A      1.804410   387A      1.813461   388A      1.821591  
     389A      1.825528   390A      1.833249   391A      1.837190  
     392A      1.845224   393A      1.849004   394A      1.858218  
     395A      1.879742   396A      1.882157   397A      1.889445  
     398A      1.895624   399A      1.901329   400A      1.914810  
     401A      1.922430   402A      1.930452   403A      1.946488  
     404A      1.953915   405A      1.973758   406A      1.974999  
     407A      1.984439   408A      1.988865   409A      1.997284  
     410A      2.005254   411A      2.009849   412A      2.022136  
     413A      2.024689   414A      2.039775   415A      2.043543  
     416A      2.047574   417A      2.063207   418A      2.077617  
     419A      2.080894   420A      2.083128   421A      2.087575  
     422A      2.096261   423A      2.106530   424A      2.114766  
     425A      2.120035   426A      2.123445   427A      2.139891  
     428A      2.144760   429A      2.150514   430A      2.163917  
     431A      2.170825   432A      2.181162   433A      2.187787  
     434A      2.207340   435A      2.212070   436A      2.218013  
     437A      2.221792   438A      2.236832   439A      2.243392  
     440A      2.252877   441A      2.264853   442A      2.267124  
     443A      2.282515   444A      2.288436   445A      2.298779  
     446A      2.305604   447A      2.308185   448A      2.313394  
     449A      2.329648   450A      2.345893   451A      2.348269  
     452A      2.354991   453A      2.362948   454A      2.373895  
     455A      2.380417   456A      2.406236   457A      2.412357  
     458A      2.417441   459A      2.438762   460A      2.441720  
     461A      2.450519   462A      2.456578   463A      2.462819  
     464A      2.469575   465A      2.481475   466A      2.490577  
     467A      2.493556   468A      2.501840   469A      2.508715  
     470A      2.526167   471A      2.536208   472A      2.537924  
     473A      2.540796   474A      2.547635   475A      2.558121  
     476A      2.562521   477A      2.576656   478A      2.579687  
     479A      2.592426   480A      2.595549   481A      2.605960  
     482A      2.616343   483A      2.621130   484A      2.635816  
     485A      2.637283   486A      2.643635   487A      2.645473  
     488A      2.657206   489A      2.660240   490A      2.665653  
     491A      2.668350   492A      2.674586   493A      2.676964  
     494A      2.680437   495A      2.691638   496A      2.700723  
     497A      2.711148   498A      2.714687   499A      2.719040  
     500A      2.720305   501A      2.723458   502A      2.736217  
     503A      2.745661   504A      2.750923   505A      2.756166  
     506A      2.764494   507A      2.772864   508A      2.779578  
     509A      2.788606   510A      2.792567   511A      2.795887  
     512A      2.803127   513A      2.813358   514A      2.819454  
     515A      2.821395   516A      2.830930   517A      2.833954  
     518A      2.839857   519A      2.844853   520A      2.850091  
     521A      2.859643   522A      2.863751   523A      2.868909  
     524A      2.869458   525A      2.881690   526A      2.885520  
     527A      2.900573   528A      2.906031   529A      2.916671  
     530A      2.924948   531A      2.930661   532A      2.936536  
     533A      2.946567   534A      2.965000   535A      2.970100  
     536A      2.972297   537A      2.982851   538A      2.993767  
     539A      2.998433   540A      3.007438   541A      3.008747  
     542A      3.021034   543A      3.033681   544A      3.041325  
     545A      3.046085   546A      3.049545   547A      3.058428  
     548A      3.063483   549A      3.078361   550A      3.085778  
     551A      3.091524   552A      3.097936   553A      3.113116  
     554A      3.115546   555A      3.119435   556A      3.122146  
     557A      3.125487   558A      3.128435   559A      3.133270  
     560A      3.139660   561A      3.143460   562A      3.149869  
     563A      3.155542   564A      3.164108   565A      3.164469  
     566A      3.170339   567A      3.175665   568A      3.180127  
     569A      3.182598   570A      3.189694   571A      3.199518  
     572A      3.201485   573A      3.205575   574A      3.209490  
     575A      3.220300   576A      3.226402   577A      3.235214  
     578A      3.238968   579A      3.239798   580A      3.240489  
     581A      3.255269   582A      3.265282   583A      3.267279  
     584A      3.268380   585A      3.281243   586A      3.282273  
     587A      3.288268   588A      3.302577   589A      3.308280  
     590A      3.312413   591A      3.319578   592A      3.324933  
     593A      3.326389   594A      3.337463   595A      3.339799  
     596A      3.341199   597A      3.352709   598A      3.356392  
     599A      3.368290   600A      3.374284   601A      3.380364  
     602A      3.382303   603A      3.387292   604A      3.391625  
     605A      3.400606   606A      3.410101   607A      3.411743  
     608A      3.416876   609A      3.419362   610A      3.429722  
     611A      3.434283   612A      3.435868   613A      3.440397  
     614A      3.443923   615A      3.449765   616A      3.466246  
     617A      3.473818   618A      3.473958   619A      3.480422  
     620A      3.484949   621A      3.490744   622A      3.498535  
     623A      3.508332   624A      3.514133   625A      3.524221  
     626A      3.535727   627A      3.541961   628A      3.547432  
     629A      3.553418   630A      3.559445   631A      3.562651  
     632A      3.576990   633A      3.585061   634A      3.591569  
     635A      3.600018   636A      3.605698   637A      3.615474  
     638A      3.627019   639A      3.645119   640A      3.656745  
     641A      3.668110   642A      3.675751   643A      3.682740  
     644A      3.701270   645A      3.705842   646A      3.714553  
     647A      3.738705   648A      3.759500   649A      3.763254  
     650A      3.779606   651A      3.782111   652A      3.797379  
     653A      3.806061   654A      3.819471   655A      3.826006  
     656A      3.837191   657A      3.851084   658A      3.861233  
     659A      3.874993   660A      3.890737   661A      3.895660  
     662A      3.910525   663A      3.914358   664A      3.922895  
     665A      3.942314   666A      3.950002   667A      3.965631  
     668A      3.984188   669A      3.993158   670A      4.005052  
     671A      4.023019   672A      4.025335   673A      4.029751  
     674A      4.040614   675A      4.067824   676A      4.068103  
     677A      4.074039   678A      4.091776   679A      4.109807  
     680A      4.112645   681A      4.138894   682A      4.142377  
     683A      4.149672   684A      4.158224   685A      4.160812  
     686A      4.171068   687A      4.172977   688A      4.186008  
     689A      4.193401   690A      4.201542   691A      4.204151  
     692A      4.212172   693A      4.218269   694A      4.221415  
     695A      4.230912   696A      4.235884   697A      4.243104  
     698A      4.270285   699A      4.277406   700A      4.280130  
     701A      4.283324   702A      4.309714   703A      4.315485  
     704A      4.342131   705A      4.353792   706A      4.359040  
     707A      4.388470   708A      4.394907   709A      4.425229  
     710A      4.445557   711A      4.460762   712A      4.472157  
     713A      4.494846   714A      4.505175   715A      4.542303  
     716A      4.555451   717A      4.562764   718A      4.574896  
     719A      4.602179   720A      4.604708   721A      4.608973  
     722A      4.623166   723A      4.653719   724A      4.666485  
     725A      4.698345   726A      4.703932   727A      4.715826  
     728A      4.733465   729A      4.753571   730A      4.762146  
     731A      4.786280   732A      4.822048   733A      4.828900  
     734A      4.855278   735A      4.864313   736A      4.869138  
     737A      4.896179   738A      4.899035   739A      4.942969  
     740A      4.951605   741A      4.963759   742A      4.977214  
     743A      4.988487   744A      5.017428   745A      5.047957  
     746A      5.080771   747A      5.105474   748A      5.114968  
     749A      5.153321   750A      5.163089   751A      5.180148  
     752A      5.202846   753A      5.209814   754A      5.248385  
     755A      5.266854   756A      5.295380   757A      5.301736  
     758A      5.313657   759A      5.366439   760A      5.376725  
     761A      5.388888   762A      5.395366   763A      5.419568  
     764A      5.438722   765A      5.473457   766A      5.488603  
     767A      5.492209   768A      5.530400   769A      5.543126  
     770A      5.548685   771A      5.603262   772A      5.672142  
     773A      5.690188   774A      5.699019   775A      5.707347  
     776A      5.729625   777A      5.804945   778A      5.861063  
     779A      5.869455   780A      5.957928   781A      5.978644  
     782A      6.057137   783A      6.192112   784A      6.213344  
     785A      6.308872   786A      6.405371   787A      6.434692  
     788A      6.454052   789A      6.483965   790A      6.530576  
     791A      6.606074   792A      6.668378   793A      6.754570  
     794A      6.782553   795A      6.822083   796A      6.829703  
     797A      6.845330   798A      6.860863   799A      6.879362  
     800A      6.885425   801A      6.976707   802A      7.031939  
     803A      7.075480   804A      7.111713   805A      7.138060  
     806A      7.207442   807A      7.275148   808A      7.343295  
     809A      7.389905   810A      7.427832   811A      7.444867  
     812A      8.378040   813A      8.497115   814A      8.754839  
     815A      8.921567   816A      9.002249   817A     22.077221  
     818A     22.246665   819A     22.262464   820A     22.293779  
     821A     22.526709   822A     22.563542   823A     22.582184  
     824A     22.613432   825A     22.643449   826A     22.713230  
     827A     22.740336   828A     22.763876   829A     22.823460  
     830A     22.835971   831A     22.868139   832A     23.087381  
     833A     23.182827   834A     23.249546   835A     23.533442  
     836A     32.619651   837A     44.042149   838A     44.156303  
     839A     44.213786   840A     57.342319  

    Final Occupation by Irrep:
              A 
    DOCC [    85 ]
    NA   [    85 ]
    NB   [    85 ]

  @DF-RKS Final Energy: -1114.41315995420132

   => Energetics <=

    Nuclear Repulsion Energy =           1947.0432284501475806
    One-Electron Energy =               -5386.5845494426348523
    Two-Electron Energy =                2448.4495192619269801
    DFT Exchange-Correlation Energy =    -123.2330216700711247
    Empirical Dispersion Energy =          -0.0883365535699380
    VV10 Nonlocal Energy =                  0.0000000000000000
    Total Energy =                      -1114.4131599542013191

Computation Completed


Properties will be evaluated at   0.000000,   0.000000,   0.000000 [a0]

Properties computed using the SCF density matrix


 Multipole Moments:

 ------------------------------------------------------------------------------------
     Multipole            Electronic (a.u.)      Nuclear  (a.u.)        Total (a.u.)
 ------------------------------------------------------------------------------------

 L = 1.  Multiply by 2.5417464519 to convert [e a0] to [Debye]
 Dipole X            :         56.2660514          -54.5034153            1.7626361
 Dipole Y            :        -47.7364122           47.1619441           -0.5744681
 Dipole Z            :         36.1008542          -35.3310007            0.7698536
 Magnitude           :                                                    2.0073799

 ------------------------------------------------------------------------------------

*** tstop() called on choehoyun-ui-MacBookAir.local at Sun Aug  9 03:30:23 2026
Module time:
	user time   =     965.53 seconds =      16.09 minutes
	system time =      16.73 seconds =       0.28 minutes
	total time  =        144 seconds =       2.40 minutes
Total time:
	user time   =     965.53 seconds =      16.09 minutes
	system time =      16.73 seconds =       0.28 minutes
	total time  =        144 seconds =       2.40 minutes

    Psi4 stopped on: Sunday, 09 August 2026 03:30AM
    Psi4 wall time for execution: 0:02:23.64

*** Psi4 exiting successfully. Buy a developer a beer!
