
    -----------------------------------------------------------------------
          Psi4: An Open-Source Ab Initio Electronic Structure Package
                               Psi4 1.11 release

                         Git: Rev {} zzzzzzz 


    D. G. A. Smith, L. A. Burns, A. C. Simmonett, R. M. Parrish,
    M. C. Schieber, R. Galvelis, P. Kraus, H. Kruse, R. Di Remigio,
    A. Alenaizan, A. M. James, S. Lehtola, J. P. Misiewicz, M. Scheurer,
    R. A. Shaw, J. B. Schriber, Y. Xie, Z. L. Glick, D. A. Sirianni,
    J. S. O'Brien, J. M. Waldrop, A. Kumar, E. G. Hohenstein,
    B. P. Pritchard, B. R. Brooks, H. F. Schaefer III, A. Yu. Sokolov,
    K. Patkowski, A. E. DePrince III, U. Bozkaya, R. A. King,
    F. A. Evangelista, J. M. Turney, T. D. Crawford, C. D. Sherrill,
    J. Chem. Phys. 152(18) 184108 (2020). https://doi.org/10.1063/5.0006002

                            Additional Code Authors
    E. T. Seidl, C. L. Janssen, E. F. Valeev, M. L. Leininger,
    J. F. Gonthier, R. M. Richard, H. R. McAlexander, M. Saitow, X. Wang,
    P. Verma, M. H. Lechner, A. Jiang, S. Behnle, A. G. Heide,
    M. F. Herbst, D. L. Poole, T. Győri, E. C. Mitchell, J. P. Pederson,
    and A. M. Wallace

             Previous Authors, Complete List of Code Contributors,
                       and Citations for Specific Modules
    https://github.com/psi4/psi4/blob/master/codemeta.json
    https://github.com/psi4/psi4/graphs/contributors
    https://psicode.org/psi4manual/master/introduction.html#citing-psifour

    -----------------------------------------------------------------------


    Psi4 started on: Sunday, 09 August 2026 03:02AM

    Process ID: 51602
    Host:       choehoyun-ui-MacBookAir.local
    PSIDATADIR: /Users/hoyoun/micromamba/envs/psi4env/share/psi4
    Memory:     500.0 MiB
    Threads:    8
    Addons:     a̶d̶c̶c̶, a̶m̶b̶i̶t̶, b̶s̶e̶, c̶c̶t̶3̶, c̶f̶o̶u̶r̶, c̶h̶e̶m̶p̶s̶2̶, c̶p̶p̶e̶, d̶d̶x̶, dftd3,
                d̶f̶t̶d̶4̶, dkh, ecpint, einsums, f̶o̶r̶t̶e̶, gauxc, g̶c̶p̶, g̶d̶m̶a̶,
                g̶e̶o̶m̶e̶t̶r̶i̶c̶, g̶p̶u̶_̶d̶f̶c̶c̶, i̶n̶t̶e̶g̶r̶a̶t̶o̶r̶x̶x̶, i̶p̶i̶,
                l̶i̶b̶e̶f̶p̶, m̶d̶i̶, m̶p̶2̶d̶, m̶r̶c̶c̶, ooo, o̶p̶e̶n̶f̶e̶r̶m̶i̶o̶n̶p̶s̶i̶4̶,
                pcmsolver, p̶s̶i̶4̶f̶o̶c̶k̶c̶i̶, p̶s̶i̶x̶a̶s̶, p̶y̶e̶i̶n̶s̶u̶m̶s̶, r̶e̶s̶p̶,
                s̶i̶m̶i̶n̶t̶, s̶n̶s̶m̶p̶2̶, v̶2̶r̶d̶m̶_̶c̶a̶s̶s̶c̶f̶

  ==> Input File <==

--------------------------------------------------------------------------
memory 3 GB
molecule mol {
0 1
N -0.93238528047823 -0.68015513050388 0.06854619178092
C 0.12360314176915 0.26430584030656 -0.21473827151295
C 1.42896548673767 -0.49112996178717 0.02910502186651
O 1.44868177343772 -1.58008786365011 0.59560694006427
C 0.04373558960945 1.54751308146361 0.63346081195592
O -0.79361416602294 2.52077497114625 0.06431225485060
H -0.60986104323473 -1.56560188987642 0.43420499433767
H 0.07654669991662 0.57400628868328 -1.26298655265606
H -0.26868610785423 1.25621334516138 1.64282807667550
H 1.03557196495142 1.99272428615128 0.70888987928846
H -1.60625044730137 2.04818975347714 -0.19606060320988
N 2.53528847298439 0.14600670166189 -0.41261153300903
H 2.41770097679420 1.01607320999821 -0.90218300558650
C 3.86533664766415 -0.40402928878660 -0.25018096643304
H 4.27735222230215 -0.73190715564386 -1.20290920888927
H 4.53035485795556 0.33331999814900 0.19284368261336
H 3.78468679997402 -1.25996180297836 0.41152997197815
C -2.24058392668189 -0.44432687764128 -0.15405413938470
O -2.66934930211801 0.63794961743304 -0.56363894683623
C -3.16582865262751 -1.60388245577148 0.11052706470313
H -3.57076192962866 -1.94404381729684 -0.84041576305272
H -3.99613559140350 -1.25339528546022 0.71716009046342
H -2.67399517344758 -2.43633857323567 0.60635601093540
units angstrom
no_reorient
no_com
}
set basis def2-TZVP
set scf_type df
set freeze_core true
set e_convergence 8
energy('b3lyp-d3bj')
--------------------------------------------------------------------------

  Memory set to   2.794 GiB by Python driver.

Scratch directory: /Users/hoyoun/Documents/Yonsei_AX_Camp/(진짜_이게_최종)/calibration/dft_work/_scratch/SER_xar/
   => Libint2 <=

    Primary   basis highest AM E, G, H:  7, 6, 3
    Auxiliary basis highest AM E, G, H:  7, 7, 4
    Onebody   basis highest AM E, G, H:  -, -, -
    Solid Harmonics ordering:            Gaussian

*** tstart() called on choehoyun-ui-MacBookAir.local
*** at Sun Aug  9 03:02:29 2026

   => Loading Basis Set <=

    Name: DEF2-TZVP
    Role: ORBITAL
    Keyword: BASIS
    atoms 1, 12                  entry N          line   156 file /Users/hoyoun/micromamba/envs/psi4env/share/psi4/basis/def2-tzvp.gbs 
    atoms 2-3, 5, 14, 18, 20     entry C          line   123 file /Users/hoyoun/micromamba/envs/psi4env/share/psi4/basis/def2-tzvp.gbs 
    atoms 4, 6, 19               entry O          line   189 file /Users/hoyoun/micromamba/envs/psi4env/share/psi4/basis/def2-tzvp.gbs 
    atoms 7-11, 13, 15-17, 21-23 entry H          line    15 file /Users/hoyoun/micromamba/envs/psi4env/share/psi4/basis/def2-tzvp.gbs 

   => B3LYP-D3(BJ): Empirical Dispersion <=

    Grimme's -D3 (BJ-damping) Dispersion Correction
    Grimme S.; Ehrlich S.; Goerigk L. (2011), J. Comput. Chem., 32: 1456

        s6 =       1.000000
        s8 =       1.988900
        a1 =       0.398100
        a2 =       4.421100


         ---------------------------------------------------------
                                   SCF
               by Justin Turney, Rob Parrish, Andy Simmonett
                          and Daniel G. A. Smith
                              RKS Reference
                        8 Threads,   2861 MiB Core
         ---------------------------------------------------------

  ==> Geometry <==

    Molecular point group: c1
    Full point group: C1

    Geometry (in Angstrom), charge = 0, multiplicity = 1:

       Center              X                  Y                   Z               Mass       
    ------------   -----------------  -----------------  -----------------  -----------------
         N           -0.932385280478    -0.680155130504     0.068546191781    14.003074004430
         C            0.123603141769     0.264305840307    -0.214738271513    12.000000000000
         C            1.428965486738    -0.491129961787     0.029105021867    12.000000000000
         O            1.448681773438    -1.580087863650     0.595606940064    15.994914619570
         C            0.043735589609     1.547513081464     0.633460811956    12.000000000000
         O           -0.793614166023     2.520774971146     0.064312254851    15.994914619570
         H           -0.609861043235    -1.565601889876     0.434204994338     1.007825032230
         H            0.076546699917     0.574006288683    -1.262986552656     1.007825032230
         H           -0.268686107854     1.256213345161     1.642828076675     1.007825032230
         H            1.035571964951     1.992724286151     0.708889879288     1.007825032230
         H           -1.606250447301     2.048189753477    -0.196060603210     1.007825032230
         N            2.535288472984     0.146006701662    -0.412611533009    14.003074004430
         H            2.417700976794     1.016073209998    -0.902183005586     1.007825032230
         C            3.865336647664    -0.404029288787    -0.250180966433    12.000000000000
         H            4.277352222302    -0.731907155644    -1.202909208889     1.007825032230
         H            4.530354857956     0.333319998149     0.192843682613     1.007825032230
         H            3.784686799974    -1.259961802978     0.411529971978     1.007825032230
         C           -2.240583926682    -0.444326877641    -0.154054139385    12.000000000000
         O           -2.669349302118     0.637949617433    -0.563638946836    15.994914619570
         C           -3.165828652628    -1.603882455771     0.110527064703    12.000000000000
         H           -3.570761929629    -1.944043817297    -0.840415763053     1.007825032230
         H           -3.996135591404    -1.253395285460     0.717160090463     1.007825032230
         H           -2.673995173448    -2.436338573236     0.606356010935     1.007825032230

  Running in c1 symmetry.

  Rotational constants: A =      0.06066  B =      0.02179  C =      0.01696 [cm^-1]
  Rotational constants: A =   1818.59449  B =    653.29336  C =    508.33067 [MHz]
  Nuclear repulsion =  656.834004930121523

  Charge       = 0
  Multiplicity = 1
  Electrons    = 86
  Nalpha       = 43
  Nbeta        = 43

  ==> Algorithm <==

  SCF Algorithm Type is DF.
  DIIS enabled.
  MOM disabled.
  Fractional occupation disabled.
  Guess Type is SAD.
  Energy threshold   = 1.00e-08
  Density threshold  = 1.00e-06
  Integral threshold = 1.00e-12

  ==> Primary Basis <==

  Basis Set: DEF2-TZVP
    Blend: DEF2-TZVP
    Number of shells: 169
    Number of basis functions: 413
    Number of Cartesian functions: 468
    Spherical Harmonics?: true
    Max angular momentum: 3

  ==> DFT Potential <==

   => LibXC <=

    Version 7.1.2
    S. Lehtola, C. Steigemann, M. J. T. Oliveira, and M. A. L. Marques,  SoftwareX 7, 1–5 (2018) (10.1016/j.softx.2017.11.002)

   => Composite Functional: B3LYP-D3BJ2B <= 

    B3LYP-d3bj2b Hyb-GGA Exchange-Correlation Functional

    P. J. Stephens, F. J. Devlin, C. F. Chabalowski, and M. J. Frisch,  J. Phys. Chem. 98, 11623 (1994) (10.1021/j100096a001)

    Deriv               =              1
    GGA                 =           TRUE
    Meta                =          FALSE

    Exchange Hybrid     =           TRUE
    MP2 Hybrid          =          FALSE

   => Exchange Functionals <=

    0.0800   Slater exchange
    0.7200         Becke 88

   => Exact (HF) Exchange <=

    0.2000               HF 

   => Correlation Functionals <=

    0.1900   Vosko, Wilk & Nusair (VWN5_RPA)
    0.8100   Lee, Yang & Parr

   => LibXC Density Thresholds  <==

    XC_HYB_GGA_XC_B3LYP:  1.00E-15 

   => Molecular Quadrature <=

    Radial Scheme          =       TREUTLER
    Pruning Scheme         =           NONE
    Nuclear Scheme         =       TREUTLER

    Blocking Scheme        =         OCTREE
    BS radius alpha        =              1
    Pruning alpha          =              1
    Radial Points          =             75
    Spherical Points       =            302
    Total Points           =         482124
    Total Blocks           =           3523
    Max Points             =            256
    Max Functions          =            337
    Weights Tolerance      =       1.00E-15

   => Loading Basis Set <=

    Name: (DEF2-TZVP AUX)
    Role: JKFIT
    Keyword: DF_BASIS_SCF
    atoms 1, 12                  entry N          line   258 file /Users/hoyoun/micromamba/envs/psi4env/share/psi4/basis/def2-universal-jkfit.gbs 
    atoms 2-3, 5, 14, 18, 20     entry C          line   198 file /Users/hoyoun/micromamba/envs/psi4env/share/psi4/basis/def2-universal-jkfit.gbs 
    atoms 4, 6, 19               entry O          line   318 file /Users/hoyoun/micromamba/envs/psi4env/share/psi4/basis/def2-universal-jkfit.gbs 
    atoms 7-11, 13, 15-17, 21-23 entry H          line    18 file /Users/hoyoun/micromamba/envs/psi4env/share/psi4/basis/def2-universal-jkfit.gbs 

  ==> Integral Setup <==

  DFHelper Memory: AOs need 1.176 GiB; user supplied 1.176 GiB. 
  SCF_SUBTYPE=INCORE selected. In-core MEM_DF algorithm will be used.
  Using in-core AOs.

  ==> MemDFJK: Density-Fitted J/K Matrices <==

    J tasked:                   Yes
    K tasked:                   Yes
    wK tasked:                   No
    OpenMP threads:               8
    Memory [MiB]:              1203
    Algorithm:                 Core
    Schwarz Cutoff:           1E-12
    Mask sparsity (%):      15.9197
    Fitting Condition:        1E-10

   => Auxiliary Basis Set <=

  Basis Set: (DEF2-TZVP AUX)
    Blend: DEF2-UNIVERSAL-JKFIT
    Number of shells: 347
    Number of basis functions: 1051
    Number of Cartesian functions: 1239
    Spherical Harmonics?: true
    Max angular momentum: 4

  Cached 25.0% of DFT collocation blocks in 0.837 [GiB].

  Minimum eigenvalue in the overlap matrix is 1.1444079696E-04.
  Reciprocal condition number of the overlap matrix is 1.1680225618E-05.
    Using symmetric orthogonalization.

  ==> Pre-Iterations <==

  SCF Guess: Superposition of Atomic Densities via on-the-fly atomic UHF (no occupation information).

   -------------------------
    Irrep   Nso     Nmo    
   -------------------------
     A        413     413 
   -------------------------
    Total     413     413
   -------------------------

  ==> Iterations <==

                           Total Energy        Delta E     RMS |[F,P]|

   @DF-RKS iter SAD:  -570.57545445316998   -5.70575e+02   0.00000e+00 
   @DF-RKS iter   1:  -570.47604506640880    9.94094e-02   3.48483e-03 DIIS/ADIIS
   @DF-RKS iter   2:  -570.00442462422711    4.71620e-01   4.30842e-03 DIIS/ADIIS
   @DF-RKS iter   3:  -571.31577830997765   -1.31135e+00   6.88811e-04 DIIS/ADIIS
   @DF-RKS iter   4:  -571.33958367211949   -2.38054e-02   3.07085e-04 DIIS/ADIIS
   @DF-RKS iter   5:  -571.34509651949315   -5.51285e-03   1.24703e-04 DIIS/ADIIS
   @DF-RKS iter   6:  -571.34608666675331   -9.90147e-04   2.25935e-05 DIIS
   @DF-RKS iter   7:  -571.34611810860736   -3.14419e-05   6.53088e-06 DIIS
   @DF-RKS iter   8:  -571.34612049016062   -2.38155e-06   2.82287e-06 DIIS
   @DF-RKS iter   9:  -571.34612092148927   -4.31329e-07   1.11852e-06 DIIS
   @DF-RKS iter  10:  -571.34612099686842   -7.53791e-08   3.38197e-07 DIIS
   @DF-RKS iter  11:  -571.34612100389973   -7.03130e-09   8.66232e-08 DIIS
  Energy and wave function converged.


  ==> Post-Iterations <==

   Electrons on quadrature grid:
      Ntotal   =   85.9999110101 ; deviation = -8.899e-05 

    Orbital Energies [Eh]
    ---------------------

    Doubly Occupied:                                                      

       1A    -19.116154     2A    -19.106055     3A    -19.102861  
       4A    -14.365985     5A    -14.350918     6A    -10.294860  
       7A    -10.286174     8A    -10.233713     9A    -10.224723  
      10A    -10.218657    11A    -10.182877    12A     -1.065875  
      13A     -1.049710    14A     -1.011300    15A     -0.951068  
      16A     -0.940953    17A     -0.793510    18A     -0.747371  
      19A     -0.715997    20A     -0.658485    21A     -0.616426  
      22A     -0.595741    23A     -0.557134    24A     -0.521676  
      25A     -0.505117    26A     -0.492529    27A     -0.476927  
      28A     -0.475215    29A     -0.459535    30A     -0.439684  
      31A     -0.434091    32A     -0.424681    33A     -0.416221  
      34A     -0.411556    35A     -0.405523    36A     -0.390603  
      37A     -0.369732    38A     -0.347684    39A     -0.293848  
      40A     -0.286793    41A     -0.276807    42A     -0.272255  
      43A     -0.262746  

    Virtual:                                                              

      44A     -0.008584    45A      0.005886    46A      0.014791  
      47A      0.033714    48A      0.048548    49A      0.064234  
      50A      0.075327    51A      0.084822    52A      0.090941  
      53A      0.100208    54A      0.105871    55A      0.110377  
      56A      0.118697    57A      0.120410    58A      0.123686  
      59A      0.151858    60A      0.163932    61A      0.170871  
      62A      0.176915    63A      0.187022    64A      0.196403  
      65A      0.210287    66A      0.213989    67A      0.222059  
      68A      0.229859    69A      0.230989    70A      0.241870  
      71A      0.260276    72A      0.275829    73A      0.292347  
      74A      0.308238    75A      0.319290    76A      0.324567  
      77A      0.333108    78A      0.340225    79A      0.344073  
      80A      0.347155    81A      0.368683    82A      0.374349  
      83A      0.385070    84A      0.387064    85A      0.394502  
      86A      0.400870    87A      0.408341    88A      0.418523  
      89A      0.423607    90A      0.428115    91A      0.438949  
      92A      0.441923    93A      0.443091    94A      0.447884  
      95A      0.463313    96A      0.471023    97A      0.477433  
      98A      0.486524    99A      0.499407   100A      0.511856  
     101A      0.516323   102A      0.525629   103A      0.536855  
     104A      0.548434   105A      0.554203   106A      0.562609  
     107A      0.569623   108A      0.577963   109A      0.595772  
     110A      0.605636   111A      0.615966   112A      0.640824  
     113A      0.645869   114A      0.647892   115A      0.671893  
     116A      0.689785   117A      0.716015   118A      0.723924  
     119A      0.735748   120A      0.758570   121A      0.777717  
     122A      0.786675   123A      0.805213   124A      0.828421  
     125A      0.835677   126A      0.841914   127A      0.854748  
     128A      0.867583   129A      0.885164   130A      0.903702  
     131A      0.910030   132A      0.924860   133A      0.938236  
     134A      0.959269   135A      0.980937   136A      0.997687  
     137A      1.000312   138A      1.020260   139A      1.030375  
     140A      1.037912   141A      1.051393   142A      1.070952  
     143A      1.087517   144A      1.103370   145A      1.136591  
     146A      1.144105   147A      1.170242   148A      1.190701  
     149A      1.232970   150A      1.264332   151A      1.271437  
     152A      1.299447   153A      1.319985   154A      1.348753  
     155A      1.354701   156A      1.380933   157A      1.388637  
     158A      1.411986   159A      1.419152   160A      1.436572  
     161A      1.458241   162A      1.461870   163A      1.472940  
     164A      1.483129   165A      1.493564   166A      1.500281  
     167A      1.505077   168A      1.513887   169A      1.524900  
     170A      1.531556   171A      1.538223   172A      1.548069  
     173A      1.562440   174A      1.573781   175A      1.579077  
     176A      1.588062   177A      1.610719   178A      1.642073  
     179A      1.649589   180A      1.675426   181A      1.692019  
     182A      1.705486   183A      1.721706   184A      1.734920  
     185A      1.740496   186A      1.769882   187A      1.788013  
     188A      1.801978   189A      1.823392   190A      1.836893  
     191A      1.842549   192A      1.858794   193A      1.864000  
     194A      1.893087   195A      1.911580   196A      1.918335  
     197A      1.933175   198A      1.948503   199A      1.977250  
     200A      1.984285   201A      2.003094   202A      2.020191  
     203A      2.047007   204A      2.050433   205A      2.100076  
     206A      2.109357   207A      2.124420   208A      2.135078  
     209A      2.155587   210A      2.171038   211A      2.192829  
     212A      2.202484   213A      2.209869   214A      2.220747  
     215A      2.241757   216A      2.262093   217A      2.276977  
     218A      2.283021   219A      2.287838   220A      2.309630  
     221A      2.327695   222A      2.332905   223A      2.345690  
     224A      2.350982   225A      2.372662   226A      2.376041  
     227A      2.382867   228A      2.432066   229A      2.458023  
     230A      2.464241   231A      2.490739   232A      2.493265  
     233A      2.517168   234A      2.520893   235A      2.535667  
     236A      2.548854   237A      2.553247   238A      2.575146  
     239A      2.591372   240A      2.606384   241A      2.613811  
     242A      2.630532   243A      2.643226   244A      2.672259  
     245A      2.693683   246A      2.708564   247A      2.714134  
     248A      2.748458   249A      2.772138   250A      2.785584  
     251A      2.800589   252A      2.821609   253A      2.853125  
     254A      2.879025   255A      2.885206   256A      2.895734  
     257A      2.919263   258A      2.937014   259A      2.942090  
     260A      2.959613   261A      2.979297   262A      3.000279  
     263A      3.017414   264A      3.021580   265A      3.023235  
     266A      3.034250   267A      3.059403   268A      3.068962  
     269A      3.077437   270A      3.097943   271A      3.109330  
     272A      3.115704   273A      3.142001   274A      3.148679  
     275A      3.167493   276A      3.177519   277A      3.188342  
     278A      3.216235   279A      3.234751   280A      3.243269  
     281A      3.247763   282A      3.255352   283A      3.268021  
     284A      3.280843   285A      3.301047   286A      3.321474  
     287A      3.330380   288A      3.347817   289A      3.356969  
     290A      3.370059   291A      3.373098   292A      3.386514  
     293A      3.394001   294A      3.408344   295A      3.431868  
     296A      3.450834   297A      3.476779   298A      3.491145  
     299A      3.510678   300A      3.522024   301A      3.547808  
     302A      3.564670   303A      3.585595   304A      3.591364  
     305A      3.604214   306A      3.647833   307A      3.691440  
     308A      3.714918   309A      3.719766   310A      3.754915  
     311A      3.779185   312A      3.819820   313A      3.832918  
     314A      3.846184   315A      3.872698   316A      3.894722  
     317A      3.933141   318A      3.939112   319A      3.985950  
     320A      3.998347   321A      4.030359   322A      4.055773  
     323A      4.094667   324A      4.117991   325A      4.135303  
     326A      4.167752   327A      4.187611   328A      4.225345  
     329A      4.265776   330A      4.314180   331A      4.327090  
     332A      4.362535   333A      4.376446   334A      4.402740  
     335A      4.425604   336A      4.473617   337A      4.494616  
     338A      4.528682   339A      4.569936   340A      4.603743  
     341A      4.657522   342A      4.681735   343A      4.724350  
     344A      4.759951   345A      4.773312   346A      4.783542  
     347A      4.812090   348A      4.910617   349A      4.991342  
     350A      5.035950   351A      5.061134   352A      5.073644  
     353A      5.084011   354A      5.124698   355A      5.158467  
     356A      5.175845   357A      5.195488   358A      5.219487  
     359A      5.245769   360A      5.261269   361A      5.275894  
     362A      5.295559   363A      5.308932   364A      5.379681  
     365A      5.382939   366A      5.462948   367A      5.484785  
     368A      5.509761   369A      5.518042   370A      5.591712  
     371A      5.621414   372A      5.657622   373A      5.669555  
     374A      5.741173   375A      5.781895   376A      5.804487  
     377A      5.816375   378A      5.916358   379A      5.948938  
     380A      5.978359   381A      6.083795   382A      6.126808  
     383A      6.246039   384A      6.313788   385A      6.331489  
     386A      6.382957   387A      6.423514   388A      6.508493  
     389A      6.568583   390A      6.629148   391A      6.696110  
     392A      6.710903   393A      6.739080   394A      6.793419  
     395A      6.821168   396A      6.831455   397A      6.995005  
     398A      7.056145   399A      7.071558   400A      7.106961  
     401A      7.138018   402A      7.236422   403A     22.318630  
     404A     22.387970   405A     22.462461   406A     22.659487  
     407A     23.310799   408A     23.339210   409A     32.349608  
     410A     32.572739   411A     43.829750   412A     43.899322  
     413A     43.916196  

    Final Occupation by Irrep:
              A 
    DOCC [    43 ]
    NA   [    43 ]
    NB   [    43 ]

  @DF-RKS Final Energy:  -571.34612100389973

   => Energetics <=

    Nuclear Repulsion Energy =            656.8340049301215231
    One-Electron Energy =               -2081.3209198493009353
    Two-Electron Energy =                 915.3513425640411469
    DFT Exchange-Correlation Energy =     -62.1746896966731342
    Empirical Dispersion Energy =          -0.0358589520881893
    VV10 Nonlocal Energy =                  0.0000000000000000
    Total Energy =                       -571.3461210038997251

Computation Completed


Properties will be evaluated at   0.000000,   0.000000,   0.000000 [a0]

Properties computed using the SCF density matrix


 Multipole Moments:

 ------------------------------------------------------------------------------------
     Multipole            Electronic (a.u.)      Nuclear  (a.u.)        Total (a.u.)
 ------------------------------------------------------------------------------------

 L = 1.  Multiply by 2.5417464519 to convert [e a0] to [Debye]
 Dipole X            :          3.4092148           -2.2034930            1.2057219
 Dipole Y            :         -1.0159358            0.2457309           -0.7702049
 Dipole Z            :          0.5378266           -0.7639042           -0.2260777
 Magnitude           :                                                    1.4484792

 ------------------------------------------------------------------------------------

*** tstop() called on choehoyun-ui-MacBookAir.local at Sun Aug  9 03:02:49 2026
Module time:
	user time   =     129.70 seconds =       2.16 minutes
	system time =       2.74 seconds =       0.05 minutes
	total time  =         20 seconds =       0.33 minutes
Total time:
	user time   =     129.70 seconds =       2.16 minutes
	system time =       2.74 seconds =       0.05 minutes
	total time  =         20 seconds =       0.33 minutes

    Psi4 stopped on: Sunday, 09 August 2026 03:02AM
    Psi4 wall time for execution: 0:00:19.64

*** Psi4 exiting successfully. Buy a developer a beer!
