
    -----------------------------------------------------------------------
          Psi4: An Open-Source Ab Initio Electronic Structure Package
                               Psi4 1.11 release

                         Git: Rev {} zzzzzzz 


    D. G. A. Smith, L. A. Burns, A. C. Simmonett, R. M. Parrish,
    M. C. Schieber, R. Galvelis, P. Kraus, H. Kruse, R. Di Remigio,
    A. Alenaizan, A. M. James, S. Lehtola, J. P. Misiewicz, M. Scheurer,
    R. A. Shaw, J. B. Schriber, Y. Xie, Z. L. Glick, D. A. Sirianni,
    J. S. O'Brien, J. M. Waldrop, A. Kumar, E. G. Hohenstein,
    B. P. Pritchard, B. R. Brooks, H. F. Schaefer III, A. Yu. Sokolov,
    K. Patkowski, A. E. DePrince III, U. Bozkaya, R. A. King,
    F. A. Evangelista, J. M. Turney, T. D. Crawford, C. D. Sherrill,
    J. Chem. Phys. 152(18) 184108 (2020). https://doi.org/10.1063/5.0006002

                            Additional Code Authors
    E. T. Seidl, C. L. Janssen, E. F. Valeev, M. L. Leininger,
    J. F. Gonthier, R. M. Richard, H. R. McAlexander, M. Saitow, X. Wang,
    P. Verma, M. H. Lechner, A. Jiang, S. Behnle, A. G. Heide,
    M. F. Herbst, D. L. Poole, T. Győri, E. C. Mitchell, J. P. Pederson,
    and A. M. Wallace

             Previous Authors, Complete List of Code Contributors,
                       and Citations for Specific Modules
    https://github.com/psi4/psi4/blob/master/codemeta.json
    https://github.com/psi4/psi4/graphs/contributors
    https://psicode.org/psi4manual/master/introduction.html#citing-psifour

    -----------------------------------------------------------------------


    Psi4 started on: Sunday, 09 August 2026 01:47AM

    Process ID: 46661
    Host:       choehoyun-ui-MacBookAir.local
    PSIDATADIR: /Users/hoyoun/micromamba/envs/psi4env/share/psi4
    Memory:     500.0 MiB
    Threads:    2
    Addons:     a̶d̶c̶c̶, a̶m̶b̶i̶t̶, b̶s̶e̶, c̶c̶t̶3̶, c̶f̶o̶u̶r̶, c̶h̶e̶m̶p̶s̶2̶, c̶p̶p̶e̶, d̶d̶x̶, dftd3,
                d̶f̶t̶d̶4̶, dkh, ecpint, einsums, f̶o̶r̶t̶e̶, gauxc, g̶c̶p̶, g̶d̶m̶a̶,
                g̶e̶o̶m̶e̶t̶r̶i̶c̶, g̶p̶u̶_̶d̶f̶c̶c̶, i̶n̶t̶e̶g̶r̶a̶t̶o̶r̶x̶x̶, i̶p̶i̶,
                l̶i̶b̶e̶f̶p̶, m̶d̶i̶, m̶p̶2̶d̶, m̶r̶c̶c̶, ooo, o̶p̶e̶n̶f̶e̶r̶m̶i̶o̶n̶p̶s̶i̶4̶,
                pcmsolver, p̶s̶i̶4̶f̶o̶c̶k̶c̶i̶, p̶s̶i̶x̶a̶s̶, p̶y̶e̶i̶n̶s̶u̶m̶s̶, r̶e̶s̶p̶,
                s̶i̶m̶i̶n̶t̶, s̶n̶s̶m̶p̶2̶, v̶2̶r̶d̶m̶_̶c̶a̶s̶s̶c̶f̶

  ==> Input File <==

--------------------------------------------------------------------------
memory 6 GB
molecule mol {
0 1
C 0.68285995160234 2.93364079152660 -0.29985487860777
C 0.68285995160234 1.41342089956897 -0.39768387170440
C -0.03029399776727 0.76238494574941 0.78169004442202
C 0.03029399776727 -0.76238494574941 0.78169004442202
C -0.68285995160234 -1.41342089956897 -0.39768387170440
C -0.68285995160234 -2.93364079152660 -0.29985487860777
H 1.18477691599342 3.26315876817259 0.60974405671162
H -0.33659197632554 3.31839876440271 -0.27216688069193
H 1.18996091534251 3.39223475903819 -1.14731581865360
H 1.71132587831983 1.04569192554128 -0.43868786905113
H 0.20831198546248 1.11119792103301 -1.33210280521767
H -1.07662692360177 1.08214092315136 0.78922404409240
H 0.41248197071761 1.13952791885783 1.70715397870047
H -0.41248197071761 -1.13952791885783 1.70715397870047
H 1.07662692360177 -1.08214092315136 0.78922404409240
H -0.20831198546248 -1.11119792103301 -1.33210280521767
H -1.71132587831983 -1.04569192554128 -0.43868786905113
H -1.18996091534251 -3.39223475903819 -1.14731581865360
H -1.18477691599342 -3.26315876817259 0.60974405671162
H 0.33659197632554 -3.31839876440271 -0.27216688069193
units angstrom
no_reorient
no_com
}
set basis def2-TZVP
set scf_type df
set freeze_core true
energy('b3lyp-d3bj')
--------------------------------------------------------------------------

  Memory set to   5.588 GiB by Python driver.

Scratch directory: /tmp/
   => Libint2 <=

    Primary   basis highest AM E, G, H:  7, 6, 3
    Auxiliary basis highest AM E, G, H:  7, 7, 4
    Onebody   basis highest AM E, G, H:  -, -, -
    Solid Harmonics ordering:            Gaussian

*** tstart() called on choehoyun-ui-MacBookAir.local
*** at Sun Aug  9 01:47:06 2026

   => Loading Basis Set <=

    Name: DEF2-TZVP
    Role: ORBITAL
    Keyword: BASIS
    atoms 1-6  entry C          line   123 file /Users/hoyoun/micromamba/envs/psi4env/share/psi4/basis/def2-tzvp.gbs 
    atoms 7-20 entry H          line    15 file /Users/hoyoun/micromamba/envs/psi4env/share/psi4/basis/def2-tzvp.gbs 

   => B3LYP-D3(BJ): Empirical Dispersion <=

    Grimme's -D3 (BJ-damping) Dispersion Correction
    Grimme S.; Ehrlich S.; Goerigk L. (2011), J. Comput. Chem., 32: 1456

        s6 =       1.000000
        s8 =       1.988900
        a1 =       0.398100
        a2 =       4.421100


         ---------------------------------------------------------
                                   SCF
               by Justin Turney, Rob Parrish, Andy Simmonett
                          and Daniel G. A. Smith
                              RKS Reference
                        2 Threads,   5722 MiB Core
         ---------------------------------------------------------

  ==> Geometry <==

    Molecular point group: c2
    Full point group: C2

    Geometry (in Angstrom), charge = 0, multiplicity = 1:

       Center              X                  Y                   Z               Mass       
    ------------   -----------------  -----------------  -----------------  -----------------
         C            0.682859951602     2.933640791527    -0.299854878608    12.000000000000
         C            0.682859951602     1.413420899569    -0.397683871704    12.000000000000
         C           -0.030293997767     0.762384945749     0.781690044422    12.000000000000
         C            0.030293997767    -0.762384945749     0.781690044422    12.000000000000
         C           -0.682859951602    -1.413420899569    -0.397683871704    12.000000000000
         C           -0.682859951602    -2.933640791527    -0.299854878608    12.000000000000
         H            1.184776915993     3.263158768173     0.609744056712     1.007825032230
         H           -0.336591976326     3.318398764403    -0.272166880692     1.007825032230
         H            1.189960915343     3.392234759038    -1.147315818654     1.007825032230
         H            1.711325878320     1.045691925541    -0.438687869051     1.007825032230
         H            0.208311985462     1.111197921033    -1.332102805218     1.007825032230
         H           -1.076626923602     1.082140923151     0.789224044092     1.007825032230
         H            0.412481970718     1.139527918858     1.707153978700     1.007825032230
         H           -0.412481970718    -1.139527918858     1.707153978700     1.007825032230
         H            1.076626923602    -1.082140923151     0.789224044092     1.007825032230
         H           -0.208311985462    -1.111197921033    -1.332102805218     1.007825032230
         H           -1.711325878320    -1.045691925541    -0.438687869051     1.007825032230
         H           -1.189960915343    -3.392234759038    -1.147315818654     1.007825032230
         H           -1.184776915993    -3.263158768173     0.609744056712     1.007825032230
         H            0.336591976326    -3.318398764403    -0.272166880692     1.007825032230

  Running in c2 symmetry.

  Rotational constants: A =      0.34156  B =      0.04414  C =      0.04182 [cm^-1]
  Rotational constants: A =  10239.58240  B =   1323.13404  C =   1253.63590 [MHz]
  Nuclear repulsion =  248.686229397117728

  Charge       = 0
  Multiplicity = 1
  Electrons    = 50
  Nalpha       = 25
  Nbeta        = 25

  ==> Algorithm <==

  SCF Algorithm Type is DF.
  DIIS enabled.
  MOM disabled.
  Fractional occupation disabled.
  Guess Type is SAD.
  Energy threshold   = 1.00e-06
  Density threshold  = 1.00e-06
  Integral threshold = 1.00e-12

  ==> Primary Basis <==

  Basis Set: DEF2-TZVP
    Blend: DEF2-TZVP
    Number of shells: 122
    Number of basis functions: 270
    Number of Cartesian functions: 300
    Spherical Harmonics?: true
    Max angular momentum: 3

  ==> DFT Potential <==

   => LibXC <=

    Version 7.1.2
    S. Lehtola, C. Steigemann, M. J. T. Oliveira, and M. A. L. Marques,  SoftwareX 7, 1–5 (2018) (10.1016/j.softx.2017.11.002)

   => Composite Functional: B3LYP-D3BJ2B <= 

    B3LYP-d3bj2b Hyb-GGA Exchange-Correlation Functional

    P. J. Stephens, F. J. Devlin, C. F. Chabalowski, and M. J. Frisch,  J. Phys. Chem. 98, 11623 (1994) (10.1021/j100096a001)

    Deriv               =              1
    GGA                 =           TRUE
    Meta                =          FALSE

    Exchange Hybrid     =           TRUE
    MP2 Hybrid          =          FALSE

   => Exchange Functionals <=

    0.0800   Slater exchange
    0.7200         Becke 88

   => Exact (HF) Exchange <=

    0.2000               HF 

   => Correlation Functionals <=

    0.1900   Vosko, Wilk & Nusair (VWN5_RPA)
    0.8100   Lee, Yang & Parr

   => LibXC Density Thresholds  <==

    XC_HYB_GGA_XC_B3LYP:  1.00E-15 

   => Molecular Quadrature <=

    Radial Scheme          =       TREUTLER
    Pruning Scheme         =           NONE
    Nuclear Scheme         =       TREUTLER

    Blocking Scheme        =         OCTREE
    BS radius alpha        =              1
    Pruning alpha          =              1
    Radial Points          =             75
    Spherical Points       =            302
    Total Points           =         422294
    Total Blocks           =           3122
    Max Points             =            256
    Max Functions          =            252
    Weights Tolerance      =       1.00E-15

   => Loading Basis Set <=

    Name: (DEF2-TZVP AUX)
    Role: JKFIT
    Keyword: DF_BASIS_SCF
    atoms 1-6  entry C          line   198 file /Users/hoyoun/micromamba/envs/psi4env/share/psi4/basis/def2-universal-jkfit.gbs 
    atoms 7-20 entry H          line    18 file /Users/hoyoun/micromamba/envs/psi4env/share/psi4/basis/def2-universal-jkfit.gbs 

  ==> Integral Setup <==

  DFHelper Memory: AOs need 0.369 GiB; user supplied 1.843 GiB. 
  SCF_SUBTYPE=INCORE selected. In-core MEM_DF algorithm will be used.
  Using in-core AOs.

  ==> MemDFJK: Density-Fitted J/K Matrices <==

    J tasked:                   Yes
    K tasked:                   Yes
    wK tasked:                   No
    OpenMP threads:               2
    Memory [MiB]:              1886
    Algorithm:                 Core
    Schwarz Cutoff:           1E-12
    Mask sparsity (%):       8.3265
    Fitting Condition:        1E-10

   => Auxiliary Basis Set <=

  Basis Set: (DEF2-TZVP AUX)
    Blend: DEF2-UNIVERSAL-JKFIT
    Number of shells: 234
    Number of basis functions: 702
    Number of Cartesian functions: 814
    Spherical Harmonics?: true
    Max angular momentum: 4

  Cached 100.0% of DFT collocation blocks in 2.348 [GiB].

  Minimum eigenvalue in the overlap matrix is 2.0111739216E-04.
  Reciprocal condition number of the overlap matrix is 2.0049898532E-05.
    Using symmetric orthogonalization.

  ==> Pre-Iterations <==

  SCF Guess: Superposition of Atomic Densities via on-the-fly atomic UHF (no occupation information).

   -------------------------
    Irrep   Nso     Nmo    
   -------------------------
     A        135     135 
     B        135     135 
   -------------------------
    Total     270     270
   -------------------------

  ==> Iterations <==

                           Total Energy        Delta E     RMS |[F,P]|

   @DF-RKS iter SAD:  -236.38486511356740   -2.36385e+02   0.00000e+00 
   @DF-RKS iter   1:  -236.28080586896291    1.04059e-01   6.97713e-03 DIIS/ADIIS
   @DF-RKS iter   2:  -235.46707718102650    8.13729e-01   9.18397e-03 DIIS/ADIIS
   @DF-RKS iter   3:  -237.19138874595697   -1.72431e+00   6.64557e-04 DIIS/ADIIS
   @DF-RKS iter   4:  -237.19553496505830   -4.14622e-03   4.91603e-04 DIIS/ADIIS
   @DF-RKS iter   5:  -237.19971076064542   -4.17580e-03   7.43028e-05 DIIS
   @DF-RKS iter   6:  -237.19980088169325   -9.01210e-05   1.68772e-05 DIIS
   @DF-RKS iter   7:  -237.19980523179203   -4.35010e-06   7.02787e-06 DIIS
   @DF-RKS iter   8:  -237.19980606394842   -8.32156e-07   7.63871e-07 DIIS
  Energy and wave function converged.


  ==> Post-Iterations <==

   Electrons on quadrature grid:
      Ntotal   =   50.0001483429 ; deviation = 1.483e-04 

    Orbital Energies [Eh]
    ---------------------

    Doubly Occupied:                                                      

       1A    -10.160552     1B    -10.160551     2A    -10.159206  
       2B    -10.158987     3B    -10.154697     3A    -10.154696  
       4A     -0.809945     4B     -0.768509     5A     -0.710488  
       5B     -0.637704     6A     -0.599043     6B     -0.564057  
       7B     -0.472259     7A     -0.458341     8A     -0.439370  
       9A     -0.415760     8B     -0.411622     9B     -0.392199  
      10A     -0.364872    10B     -0.359410    11A     -0.350052  
      11B     -0.333500    12A     -0.323184    13A     -0.316548  
      12B     -0.312378  

    Virtual:                                                              

      14A      0.035117    13B      0.045320    15A      0.060944  
      14B      0.065025    16A      0.076503    15B      0.101597  
      17A      0.108608    16B      0.114182    18A      0.114556  
      19A      0.124943    17B      0.128094    18B      0.136536  
      20A      0.142826    19B      0.154037    21A      0.167034  
      20B      0.179538    21B      0.191975    22A      0.200369  
      22B      0.208409    23A      0.222498    23B      0.241399  
      24A      0.245650    25A      0.248563    24B      0.249678  
      26A      0.292213    25B      0.308240    27A      0.313922  
      26B      0.327007    27B      0.336904    28A      0.346111  
      28B      0.365997    29A      0.385505    29B      0.411695  
      30A      0.411760    30B      0.420808    31A      0.432285  
      32A      0.434312    31B      0.440066    33A      0.450915  
      32B      0.451716    34A      0.467095    33B      0.468509  
      34B      0.479310    35A      0.480174    36A      0.483068  
      35B      0.484295    37A      0.499279    36B      0.513975  
      37B      0.520242    38B      0.540632    38A      0.549685  
      39A      0.582813    40A      0.599656    39B      0.608656  
      40B      0.609940    41A      0.681385    41B      0.689893  
      42B      0.748296    42A      0.754980    43A      0.783736  
      43B      0.808170    44A      0.828080    44B      0.834420  
      45A      0.840964    46A      0.858458    45B      0.864042  
      46B      0.896386    47A      0.950843    47B      0.971551  
      48A      0.997869    48B      1.000836    49A      1.024035  
      50A      1.034987    49B      1.048878    51A      1.085708  
      50B      1.111514    52A      1.112269    51B      1.132327  
      52B      1.135165    53A      1.148076    53B      1.190575  
      54A      1.217075    55A      1.221689    54B      1.252211  
      55B      1.266494    56A      1.300750    56B      1.315167  
      57A      1.454223    57B      1.493384    58B      1.509197  
      58A      1.520520    59B      1.529013    59A      1.536786  
      60B      1.552927    60A      1.558568    61B      1.568678  
      61A      1.568729    62A      1.585251    63A      1.600852  
      62B      1.603987    64A      1.614935    63B      1.619911  
      64B      1.629794    65B      1.685359    65A      1.725291  
      66A      1.749378    66B      1.753138    67A      1.779967  
      68A      1.827297    67B      1.828317    68B      1.856170  
      69A      1.867019    69B      1.869060    70B      1.892442  
      70A      1.915856    71B      1.918509    71A      1.934907  
      72B      1.963846    72A      1.988399    73A      2.019050  
      73B      2.037427    74B      2.042564    74A      2.103240  
      75A      2.122143    75B      2.175355    76A      2.236394  
      76B      2.253925    77A      2.274061    78A      2.282576  
      77B      2.305406    79A      2.329225    78B      2.330715  
      79B      2.350865    80B      2.363269    80A      2.386914  
      81B      2.400598    81A      2.403137    82A      2.428456  
      83A      2.460985    82B      2.465853    84A      2.475434  
      83B      2.510209    85A      2.533389    84B      2.546280  
      86A      2.550784    85B      2.562282    87A      2.583616  
      86B      2.591541    88A      2.596064    87B      2.613759  
      89A      2.655011    88B      2.655236    90A      2.664898  
      89B      2.665192    91A      2.684462    90B      2.689710  
      92A      2.713035    93A      2.727613    91B      2.728459  
      92B      2.741828    93B      2.776005    94A      2.800212  
      95A      2.829679    94B      2.835609    96A      2.923478  
      95B      2.952937    97A      2.961434    98A      3.018990  
      96B      3.025362    97B      3.055506    99A      3.089248  
      98B      3.096682   100A      3.122611    99B      3.145304  
     101A      3.147525   100B      3.153364   102A      3.169496  
     101B      3.203382   103A      3.232427   102B      3.244025  
     104A      3.271019   103B      3.273134   105A      3.290875  
     104B      3.295448   106A      3.342621   105B      3.346753  
     106B      3.366856   107A      3.384628   107B      3.390202  
     108A      3.417921   109A      3.435487   108B      3.441404  
     110A      3.458383   109B      3.484430   111A      3.507016  
     110B      3.521992   111B      3.547915   112A      3.552863  
     113A      3.564868   112B      3.598695   113B      3.615688  
     114B      3.668594   114A      3.688597   115B      3.727133  
     115A      3.757197   116A      3.800654   116B      3.843568  
     117A      3.844596   118A      3.876492   119A      3.908492  
     117B      3.919040   118B      3.955525   120A      3.993757  
     119B      3.998649   120B      4.011585   121B      4.083932  
     121A      4.105542   122B      4.175755   122A      4.183214  
     123A      4.189842   123B      4.321656   124A      4.344057  
     124B      4.369984   125A      4.378674   126A      4.437543  
     125B      4.452339   127A      4.524618   126B      4.544863  
     127B      4.585911   128A      4.601066   128B      4.614432  
     129A      4.666746   129B      4.705884   130A      4.748552  
     130B      4.780257   131B      4.844481   131A      4.846195  
     132A      4.963344   132B      5.183087   133A     22.287153  
     133B     22.323506   134B     22.401424   134A     22.420214  
     135B     22.504488   135A     22.505321  

    Final Occupation by Irrep:
              A     B 
    DOCC [    13,   12 ]
    NA   [    13,   12 ]
    NB   [    13,   12 ]

  @DF-RKS Final Energy:  -237.19980606394842

   => Energetics <=

    Nuclear Repulsion Energy =            248.6862293971177280
    One-Electron Energy =                -809.6806204896411145
    Two-Electron Energy =                 354.5090641577515953
    DFT Exchange-Correlation Energy =     -30.6896284615799750
    Empirical Dispersion Energy =          -0.0248506675966281
    VV10 Nonlocal Energy =                  0.0000000000000000
    Total Energy =                       -237.1998060639484436

Computation Completed


Properties will be evaluated at   0.000000,   0.000000,   0.000000 [a0]

Properties computed using the SCF density matrix


 Multipole Moments:

 ------------------------------------------------------------------------------------
     Multipole            Electronic (a.u.)      Nuclear  (a.u.)        Total (a.u.)
 ------------------------------------------------------------------------------------

 L = 1.  Multiply by 2.5417464519 to convert [e a0] to [Debye]
 Dipole X            :          0.0000000            0.0000000            0.0000000
 Dipole Y            :          0.0000000            0.0000000            0.0000000
 Dipole Z            :         -1.6048495            1.5902290           -0.0146205
 Magnitude           :                                                    0.0146205

 ------------------------------------------------------------------------------------

*** tstop() called on choehoyun-ui-MacBookAir.local at Sun Aug  9 01:47:43 2026
Module time:
	user time   =      20.66 seconds =       0.34 minutes
	system time =       8.02 seconds =       0.13 minutes
	total time  =         37 seconds =       0.62 minutes
Total time:
	user time   =      20.66 seconds =       0.34 minutes
	system time =       8.02 seconds =       0.13 minutes
	total time  =         37 seconds =       0.62 minutes

    Psi4 stopped on: Sunday, 09 August 2026 01:47AM
    Psi4 wall time for execution: 0:00:37.09

*** Psi4 exiting successfully. Buy a developer a beer!
