
    -----------------------------------------------------------------------
          Psi4: An Open-Source Ab Initio Electronic Structure Package
                               Psi4 1.11 release

                         Git: Rev {} zzzzzzz 


    D. G. A. Smith, L. A. Burns, A. C. Simmonett, R. M. Parrish,
    M. C. Schieber, R. Galvelis, P. Kraus, H. Kruse, R. Di Remigio,
    A. Alenaizan, A. M. James, S. Lehtola, J. P. Misiewicz, M. Scheurer,
    R. A. Shaw, J. B. Schriber, Y. Xie, Z. L. Glick, D. A. Sirianni,
    J. S. O'Brien, J. M. Waldrop, A. Kumar, E. G. Hohenstein,
    B. P. Pritchard, B. R. Brooks, H. F. Schaefer III, A. Yu. Sokolov,
    K. Patkowski, A. E. DePrince III, U. Bozkaya, R. A. King,
    F. A. Evangelista, J. M. Turney, T. D. Crawford, C. D. Sherrill,
    J. Chem. Phys. 152(18) 184108 (2020). https://doi.org/10.1063/5.0006002

                            Additional Code Authors
    E. T. Seidl, C. L. Janssen, E. F. Valeev, M. L. Leininger,
    J. F. Gonthier, R. M. Richard, H. R. McAlexander, M. Saitow, X. Wang,
    P. Verma, M. H. Lechner, A. Jiang, S. Behnle, A. G. Heide,
    M. F. Herbst, D. L. Poole, T. Győri, E. C. Mitchell, J. P. Pederson,
    and A. M. Wallace

             Previous Authors, Complete List of Code Contributors,
                       and Citations for Specific Modules
    https://github.com/psi4/psi4/blob/master/codemeta.json
    https://github.com/psi4/psi4/graphs/contributors
    https://psicode.org/psi4manual/master/introduction.html#citing-psifour

    -----------------------------------------------------------------------


    Psi4 started on: Sunday, 09 August 2026 02:08AM

    Process ID: 49149
    Host:       choehoyun-ui-MacBookAir.local
    PSIDATADIR: /Users/hoyoun/micromamba/envs/psi4env/share/psi4
    Memory:     500.0 MiB
    Threads:    8
    Addons:     a̶d̶c̶c̶, a̶m̶b̶i̶t̶, b̶s̶e̶, c̶c̶t̶3̶, c̶f̶o̶u̶r̶, c̶h̶e̶m̶p̶s̶2̶, c̶p̶p̶e̶, d̶d̶x̶, dftd3,
                d̶f̶t̶d̶4̶, dkh, ecpint, einsums, f̶o̶r̶t̶e̶, gauxc, g̶c̶p̶, g̶d̶m̶a̶,
                g̶e̶o̶m̶e̶t̶r̶i̶c̶, g̶p̶u̶_̶d̶f̶c̶c̶, i̶n̶t̶e̶g̶r̶a̶t̶o̶r̶x̶x̶, i̶p̶i̶,
                l̶i̶b̶e̶f̶p̶, m̶d̶i̶, m̶p̶2̶d̶, m̶r̶c̶c̶, ooo, o̶p̶e̶n̶f̶e̶r̶m̶i̶o̶n̶p̶s̶i̶4̶,
                pcmsolver, p̶s̶i̶4̶f̶o̶c̶k̶c̶i̶, p̶s̶i̶x̶a̶s̶, p̶y̶e̶i̶n̶s̶u̶m̶s̶, r̶e̶s̶p̶,
                s̶i̶m̶i̶n̶t̶, s̶n̶s̶m̶p̶2̶, v̶2̶r̶d̶m̶_̶c̶a̶s̶s̶c̶f̶

  ==> Input File <==

--------------------------------------------------------------------------
memory 3 GB
molecule mol {
0 1
N 2.56623653712011 -0.26692785806733 0.47893510758235
H 2.93194948419981 0.36067086125451 1.18129196522016
C 1.29517590987607 0.11630559413600 -0.07972314067429
H 1.43095380667530 0.33161412887861 -1.14462060383653
C 0.23856282526798 -0.99563729490235 0.05297423534220
C 0.88681089193953 1.40640752940022 0.63679972222417
H 0.76338566006299 -1.93992634635693 0.18329442324972
H -0.36417428853879 -0.82000892385698 0.94470214679639
C -0.65523966111075 -1.08964400884705 -1.18012695832508
O 1.63509233237997 1.94746904083549 1.45187651722630
H -0.13345347521771 -1.65436059845062 -1.95407523604716
H -0.82396410427803 -0.09809324238693 -1.59978645652389
C -2.00160160861689 -1.75664138533295 -0.90542197659724
H -1.83883383907884 -2.79084658075234 -0.60450362842636
H -2.59873172490934 -1.78082529059404 -1.82273436628011
N -2.72603668808092 -1.11882685588025 0.17676142429263
H -3.16856091735699 -1.70026322204396 0.86656222856392
C -3.12701968640273 0.18924395543589 0.13338202841102
N -3.05199500676810 1.00207879407958 -0.86738889568956
N -3.65041641728426 0.63126762130874 1.34130225027191
H -2.83784312603821 0.48884240607533 -1.71744429526663
H -3.86218930692619 1.61625978138051 1.30754589818684
H -3.10525399888486 0.37721603688007 2.15045306307734
N -0.32449527917817 1.90883161497275 0.33257068747100
C -0.79433982379588 3.12052349179276 0.97258396766936
H -0.96983273720419 1.43911744082771 -0.28637533076025
H -0.08309090136719 3.92978613030809 0.82397035942889
H -0.91782119910112 2.97734974079664 2.04567589331799
H -1.74767101043635 3.38335539585644 0.52429902722645
C 3.34503237483501 -1.17299863610605 -0.16066515715342
C 4.71422649402214 -1.39326152310171 0.43446699433978
O 2.95404870609737 -1.78384082288322 -1.15291791534863
H 5.46146351463984 -1.12128108611160 -0.30771015599908
H 4.88113445363366 -0.81843436654100 1.34173421443968
H 4.83413080613275 -2.45217351993811 0.64949298116627
units angstrom
no_reorient
no_com
}
set basis def2-TZVP
set scf_type df
set freeze_core true
set e_convergence 8
energy('b3lyp-d3bj')
--------------------------------------------------------------------------

  Memory set to   2.794 GiB by Python driver.

Scratch directory: /Users/hoyoun/Documents/Yonsei_AX_Camp/(진짜_이게_최종)/calibration/dft_work/_scratch/ARG_xbx/
   => Libint2 <=

    Primary   basis highest AM E, G, H:  7, 6, 3
    Auxiliary basis highest AM E, G, H:  7, 7, 4
    Onebody   basis highest AM E, G, H:  -, -, -
    Solid Harmonics ordering:            Gaussian

*** tstart() called on choehoyun-ui-MacBookAir.local
*** at Sun Aug  9 02:08:20 2026

   => Loading Basis Set <=

    Name: DEF2-TZVP
    Role: ORBITAL
    Keyword: BASIS
    atoms 1, 16, 19-20, 24                                 entry N          line   156 file /Users/hoyoun/micromamba/envs/psi4env/share/psi4/basis/def2-tzvp.gbs 
    atoms 2, 4, 7-8, 11-12, 14-15, 17, 21-23, 26-29, 33-35 entry H          line    15 file /Users/hoyoun/micromamba/envs/psi4env/share/psi4/basis/def2-tzvp.gbs 
    atoms 3, 5-6, 9, 13, 18, 25, 30-31                     entry C          line   123 file /Users/hoyoun/micromamba/envs/psi4env/share/psi4/basis/def2-tzvp.gbs 
    atoms 10, 32                                           entry O          line   189 file /Users/hoyoun/micromamba/envs/psi4env/share/psi4/basis/def2-tzvp.gbs 

   => B3LYP-D3(BJ): Empirical Dispersion <=

    Grimme's -D3 (BJ-damping) Dispersion Correction
    Grimme S.; Ehrlich S.; Goerigk L. (2011), J. Comput. Chem., 32: 1456

        s6 =       1.000000
        s8 =       1.988900
        a1 =       0.398100
        a2 =       4.421100


         ---------------------------------------------------------
                                   SCF
               by Justin Turney, Rob Parrish, Andy Simmonett
                          and Daniel G. A. Smith
                              RKS Reference
                        8 Threads,   2861 MiB Core
         ---------------------------------------------------------

  ==> Geometry <==

    Molecular point group: c1
    Full point group: C1

    Geometry (in Angstrom), charge = 0, multiplicity = 1:

       Center              X                  Y                   Z               Mass       
    ------------   -----------------  -----------------  -----------------  -----------------
         N            2.566236537120    -0.266927858067     0.478935107582    14.003074004430
         H            2.931949484200     0.360670861255     1.181291965220     1.007825032230
         C            1.295175909876     0.116305594136    -0.079723140674    12.000000000000
         H            1.430953806675     0.331614128879    -1.144620603837     1.007825032230
         C            0.238562825268    -0.995637294902     0.052974235342    12.000000000000
         C            0.886810891940     1.406407529400     0.636799722224    12.000000000000
         H            0.763385660063    -1.939926346357     0.183294423250     1.007825032230
         H           -0.364174288539    -0.820008923857     0.944702146796     1.007825032230
         C           -0.655239661111    -1.089644008847    -1.180126958325    12.000000000000
         O            1.635092332380     1.947469040835     1.451876517226    15.994914619570
         H           -0.133453475218    -1.654360598451    -1.954075236047     1.007825032230
         H           -0.823964104278    -0.098093242387    -1.599786456524     1.007825032230
         C           -2.001601608617    -1.756641385333    -0.905421976597    12.000000000000
         H           -1.838833839079    -2.790846580752    -0.604503628426     1.007825032230
         H           -2.598731724909    -1.780825290594    -1.822734366280     1.007825032230
         N           -2.726036688081    -1.118826855880     0.176761424293    14.003074004430
         H           -3.168560917357    -1.700263222044     0.866562228564     1.007825032230
         C           -3.127019686403     0.189243955436     0.133382028411    12.000000000000
         N           -3.051995006768     1.002078794080    -0.867388895690    14.003074004430
         N           -3.650416417284     0.631267621309     1.341302250272    14.003074004430
         H           -2.837843126038     0.488842406075    -1.717444295267     1.007825032230
         H           -3.862189306926     1.616259781381     1.307545898187     1.007825032230
         H           -3.105253998885     0.377216036880     2.150453063077     1.007825032230
         N           -0.324495279178     1.908831614973     0.332570687471    14.003074004430
         C           -0.794339823796     3.120523491793     0.972583967669    12.000000000000
         H           -0.969832737204     1.439117440828    -0.286375330760     1.007825032230
         H           -0.083090901367     3.929786130308     0.823970359429     1.007825032230
         H           -0.917821199101     2.977349740797     2.045675893318     1.007825032230
         H           -1.747671010436     3.383355395856     0.524299027226     1.007825032230
         C            3.345032374835    -1.172998636106    -0.160665157153    12.000000000000
         C            4.714226494022    -1.393261523102     0.434466994340    12.000000000000
         O            2.954048706097    -1.783840822883    -1.152917915349    15.994914619570
         H            5.461463514640    -1.121281086112    -0.307710155999     1.007825032230
         H            4.881134453634    -0.818434366541     1.341734214440     1.007825032230
         H            4.834130806133    -2.452173519938     0.649492981166     1.007825032230

  Running in c1 symmetry.

  Rotational constants: A =      0.02618  B =      0.01058  C =      0.00823 [cm^-1]
  Rotational constants: A =    784.71806  B =    317.29470  C =    246.64579 [MHz]
  Nuclear repulsion = 1197.982154043746959

  Charge       = 0
  Multiplicity = 1
  Electrons    = 124
  Nalpha       = 62
  Nbeta        = 62

  ==> Algorithm <==

  SCF Algorithm Type is DF.
  DIIS enabled.
  MOM disabled.
  Fractional occupation disabled.
  Guess Type is SAD.
  Energy threshold   = 1.00e-08
  Density threshold  = 1.00e-06
  Integral threshold = 1.00e-12

  ==> Primary Basis <==

  Basis Set: DEF2-TZVP
    Blend: DEF2-TZVP
    Number of shells: 252
    Number of basis functions: 610
    Number of Cartesian functions: 690
    Spherical Harmonics?: true
    Max angular momentum: 3

  ==> DFT Potential <==

   => LibXC <=

    Version 7.1.2
    S. Lehtola, C. Steigemann, M. J. T. Oliveira, and M. A. L. Marques,  SoftwareX 7, 1–5 (2018) (10.1016/j.softx.2017.11.002)

   => Composite Functional: B3LYP-D3BJ2B <= 

    B3LYP-d3bj2b Hyb-GGA Exchange-Correlation Functional

    P. J. Stephens, F. J. Devlin, C. F. Chabalowski, and M. J. Frisch,  J. Phys. Chem. 98, 11623 (1994) (10.1021/j100096a001)

    Deriv               =              1
    GGA                 =           TRUE
    Meta                =          FALSE

    Exchange Hybrid     =           TRUE
    MP2 Hybrid          =          FALSE

   => Exchange Functionals <=

    0.0800   Slater exchange
    0.7200         Becke 88

   => Exact (HF) Exchange <=

    0.2000               HF 

   => Correlation Functionals <=

    0.1900   Vosko, Wilk & Nusair (VWN5_RPA)
    0.8100   Lee, Yang & Parr

   => LibXC Density Thresholds  <==

    XC_HYB_GGA_XC_B3LYP:  1.00E-15 

   => Molecular Quadrature <=

    Radial Scheme          =       TREUTLER
    Pruning Scheme         =           NONE
    Nuclear Scheme         =       TREUTLER

    Blocking Scheme        =         OCTREE
    BS radius alpha        =              1
    Pruning alpha          =              1
    Radial Points          =             75
    Spherical Points       =            302
    Total Points           =         722341
    Total Blocks           =           5162
    Max Points             =            256
    Max Functions          =            457
    Weights Tolerance      =       1.00E-15

   => Loading Basis Set <=

    Name: (DEF2-TZVP AUX)
    Role: JKFIT
    Keyword: DF_BASIS_SCF
    atoms 1, 16, 19-20, 24                                 entry N          line   258 file /Users/hoyoun/micromamba/envs/psi4env/share/psi4/basis/def2-universal-jkfit.gbs 
    atoms 2, 4, 7-8, 11-12, 14-15, 17, 21-23, 26-29, 33-35 entry H          line    18 file /Users/hoyoun/micromamba/envs/psi4env/share/psi4/basis/def2-universal-jkfit.gbs 
    atoms 3, 5-6, 9, 13, 18, 25, 30-31                     entry C          line   198 file /Users/hoyoun/micromamba/envs/psi4env/share/psi4/basis/def2-universal-jkfit.gbs 
    atoms 10, 32                                           entry O          line   318 file /Users/hoyoun/micromamba/envs/psi4env/share/psi4/basis/def2-universal-jkfit.gbs 

  ==> Integral Setup <==

  ==> DiskDFJK: Density-Fitted J/K Matrices <==

    J tasked:                  Yes
    K tasked:                  Yes
    wK tasked:                  No
    OpenMP threads:              8
    Integrals threads:           8
    Memory [MiB]:             1834
    Algorithm:                Disk
    Integral Cache:           NONE
    Schwarz Cutoff:          1E-12
    Fitting Condition:       1E-10

   => Auxiliary Basis Set <=

  Basis Set: (DEF2-TZVP AUX)
    Blend: DEF2-UNIVERSAL-JKFIT
    Number of shells: 514
    Number of basis functions: 1556
    Number of Cartesian functions: 1832
    Spherical Harmonics?: true
    Max angular momentum: 4

  Cached 4.8% of DFT collocation blocks in 0.304 [GiB].

  Minimum eigenvalue in the overlap matrix is 5.8023871190E-05.
  Reciprocal condition number of the overlap matrix is 5.3002675133E-06.
    Using symmetric orthogonalization.

  ==> Pre-Iterations <==

  SCF Guess: Superposition of Atomic Densities via on-the-fly atomic UHF (no occupation information).

   -------------------------
    Irrep   Nso     Nmo    
   -------------------------
     A        610     610 
   -------------------------
    Total     610     610
   -------------------------

  ==> Iterations <==

                           Total Energy        Delta E     RMS |[F,P]|

   @DF-RKS iter SAD:  -778.16025713287104   -7.78160e+02   0.00000e+00 
   @DF-RKS iter   1:  -777.55471843224598    6.05539e-01   3.01262e-03 DIIS/ADIIS
   @DF-RKS iter   2:  -776.51683388102867    1.03788e+00   3.79934e-03 DIIS/ADIIS
   @DF-RKS iter   3:  -778.98171280750375   -2.46488e+00   5.42968e-04 DIIS/ADIIS
   @DF-RKS iter   4:  -779.01014774125792   -2.84349e-02   3.41507e-04 DIIS/ADIIS
   @DF-RKS iter   5:  -779.02607825777216   -1.59305e-02   1.05869e-04 DIIS/ADIIS
   @DF-RKS iter   6:  -779.02771400670576   -1.63575e-03   2.40920e-05 DIIS
   @DF-RKS iter   7:  -779.02778190610354   -6.78994e-05   1.09119e-05 DIIS
   @DF-RKS iter   8:  -779.02779886347184   -1.69574e-05   3.11677e-06 DIIS
   @DF-RKS iter   9:  -779.02780015177620   -1.28830e-06   1.14598e-06 DIIS
   @DF-RKS iter  10:  -779.02780033820284   -1.86427e-07   2.55737e-07 DIIS
   @DF-RKS iter  11:  -779.02780034569889   -7.49606e-09   1.37916e-07 DIIS
  Energy and wave function converged.


  ==> Post-Iterations <==

   Electrons on quadrature grid:
      Ntotal   =  123.9998881133 ; deviation = -1.119e-04 

    Orbital Energies [Eh]
    ---------------------

    Doubly Occupied:                                                      

       1A    -19.097747     2A    -19.081798     3A    -14.349982  
       4A    -14.341165     5A    -14.337192     6A    -14.331713  
       7A    -14.282932     8A    -10.283201     9A    -10.274714  
      10A    -10.265965    11A    -10.224983    12A    -10.220187  
      13A    -10.200538    14A    -10.181317    15A    -10.175858  
      16A    -10.170736    17A     -1.046490    18A     -1.028728  
      19A     -1.001710    20A     -0.928103    21A     -0.923150  
      22A     -0.910203    23A     -0.861191    24A     -0.810761  
      25A     -0.764642    26A     -0.730771    27A     -0.708523  
      28A     -0.669817    29A     -0.627316    30A     -0.598915  
      31A     -0.589113    32A     -0.578700    33A     -0.570181  
      34A     -0.543866    35A     -0.534669    36A     -0.498093  
      37A     -0.488660    38A     -0.478132    39A     -0.473737  
      40A     -0.469486    41A     -0.455086    42A     -0.453952  
      43A     -0.444966    44A     -0.436323    45A     -0.417876  
      46A     -0.411913    47A     -0.410448    48A     -0.400938  
      49A     -0.397363    50A     -0.391874    51A     -0.375880  
      52A     -0.373432    53A     -0.357365    54A     -0.350862  
      55A     -0.342514    56A     -0.288628    57A     -0.282465  
      58A     -0.273133    59A     -0.270222    60A     -0.255431  
      61A     -0.253164    62A     -0.251040  

    Virtual:                                                              

      63A     -0.000375    64A      0.008990    65A      0.015996  
      66A      0.024128    67A      0.028283    68A      0.042551  
      69A      0.045243    70A      0.063918    71A      0.068945  
      72A      0.070018    73A      0.072850    74A      0.087586  
      75A      0.094361    76A      0.098230    77A      0.108651  
      78A      0.115587    79A      0.121722    80A      0.124771  
      81A      0.128476    82A      0.130821    83A      0.132778  
      84A      0.140400    85A      0.147731    86A      0.154130  
      87A      0.164081    88A      0.180562    89A      0.189327  
      90A      0.196161    91A      0.201678    92A      0.204623  
      93A      0.206262    94A      0.210204    95A      0.215198  
      96A      0.219761    97A      0.222664    98A      0.228936  
      99A      0.237916   100A      0.242514   101A      0.251281  
     102A      0.259882   103A      0.263007   104A      0.273562  
     105A      0.280515   106A      0.294608   107A      0.296712  
     108A      0.305418   109A      0.315467   110A      0.321075  
     111A      0.326345   112A      0.331145   113A      0.342339  
     114A      0.352203   115A      0.354875   116A      0.357162  
     117A      0.359010   118A      0.367277   119A      0.381513  
     120A      0.385553   121A      0.388305   122A      0.395111  
     123A      0.399193   124A      0.403398   125A      0.409192  
     126A      0.413684   127A      0.415434   128A      0.421190  
     129A      0.427536   130A      0.431301   131A      0.438801  
     132A      0.443827   133A      0.447438   134A      0.450234  
     135A      0.459949   136A      0.461400   137A      0.467856  
     138A      0.468969   139A      0.476505   140A      0.476866  
     141A      0.478450   142A      0.486492   143A      0.492280  
     144A      0.494009   145A      0.509029   146A      0.511574  
     147A      0.519664   148A      0.521627   149A      0.525559  
     150A      0.533685   151A      0.537017   152A      0.549267  
     153A      0.559738   154A      0.564414   155A      0.568584  
     156A      0.568758   157A      0.577148   158A      0.579738  
     159A      0.587787   160A      0.600801   161A      0.608117  
     162A      0.619839   163A      0.624121   164A      0.627914  
     165A      0.647419   166A      0.656066   167A      0.667506  
     168A      0.672575   169A      0.683237   170A      0.690705  
     171A      0.695239   172A      0.701654   173A      0.711592  
     174A      0.739284   175A      0.744678   176A      0.754802  
     177A      0.757849   178A      0.765258   179A      0.781535  
     180A      0.785081   181A      0.794759   182A      0.810314  
     183A      0.817475   184A      0.840718   185A      0.852867  
     186A      0.856450   187A      0.870165   188A      0.876180  
     189A      0.887469   190A      0.899793   191A      0.914669  
     192A      0.916225   193A      0.924747   194A      0.935860  
     195A      0.955701   196A      0.967845   197A      0.971528  
     198A      0.972091   199A      0.993223   200A      1.010852  
     201A      1.023444   202A      1.026451   203A      1.040873  
     204A      1.053346   205A      1.063657   206A      1.064336  
     207A      1.076242   208A      1.091705   209A      1.095937  
     210A      1.108659   211A      1.125519   212A      1.126820  
     213A      1.134349   214A      1.155015   215A      1.161705  
     216A      1.172312   217A      1.194854   218A      1.199567  
     219A      1.213817   220A      1.233777   221A      1.248288  
     222A      1.252761   223A      1.268940   224A      1.276256  
     225A      1.286738   226A      1.298405   227A      1.308314  
     228A      1.324440   229A      1.333237   230A      1.344362  
     231A      1.353882   232A      1.370250   233A      1.377810  
     234A      1.378938   235A      1.390199   236A      1.401039  
     237A      1.422940   238A      1.428771   239A      1.436246  
     240A      1.442550   241A      1.465402   242A      1.477611  
     243A      1.485809   244A      1.490025   245A      1.491694  
     246A      1.502551   247A      1.515042   248A      1.526431  
     249A      1.529761   250A      1.534863   251A      1.540149  
     252A      1.544199   253A      1.558108   254A      1.559245  
     255A      1.567063   256A      1.575493   257A      1.577242  
     258A      1.587361   259A      1.593414   260A      1.602661  
     261A      1.618115   262A      1.627186   263A      1.637154  
     264A      1.643455   265A      1.655288   266A      1.665143  
     267A      1.670623   268A      1.680076   269A      1.694883  
     270A      1.710012   271A      1.718419   272A      1.719777  
     273A      1.731860   274A      1.742703   275A      1.745567  
     276A      1.753389   277A      1.770472   278A      1.778041  
     279A      1.793108   280A      1.803517   281A      1.823701  
     282A      1.832057   283A      1.842608   284A      1.853418  
     285A      1.864591   286A      1.867816   287A      1.873110  
     288A      1.898533   289A      1.906602   290A      1.925008  
     291A      1.931157   292A      1.950063   293A      1.951112  
     294A      1.969257   295A      1.972694   296A      1.992732  
     297A      1.999592   298A      2.001494   299A      2.010172  
     300A      2.015927   301A      2.025339   302A      2.032319  
     303A      2.039098   304A      2.050857   305A      2.079245  
     306A      2.080937   307A      2.089669   308A      2.104840  
     309A      2.112337   310A      2.116843   311A      2.133400  
     312A      2.137120   313A      2.155433   314A      2.166903  
     315A      2.173379   316A      2.188652   317A      2.206728  
     318A      2.220096   319A      2.226341   320A      2.244855  
     321A      2.249995   322A      2.269140   323A      2.280667  
     324A      2.289816   325A      2.304775   326A      2.312465  
     327A      2.316906   328A      2.322630   329A      2.329525  
     330A      2.341661   331A      2.350865   332A      2.359243  
     333A      2.365806   334A      2.378928   335A      2.390077  
     336A      2.395524   337A      2.404978   338A      2.416972  
     339A      2.428578   340A      2.441829   341A      2.449662  
     342A      2.461582   343A      2.475985   344A      2.488182  
     345A      2.504540   346A      2.517714   347A      2.532554  
     348A      2.542729   349A      2.545654   350A      2.548548  
     351A      2.563968   352A      2.576822   353A      2.584843  
     354A      2.597580   355A      2.605762   356A      2.612251  
     357A      2.617478   358A      2.634094   359A      2.647890  
     360A      2.655184   361A      2.657873   362A      2.673230  
     363A      2.687955   364A      2.697874   365A      2.713444  
     366A      2.724269   367A      2.731050   368A      2.742195  
     369A      2.757326   370A      2.769349   371A      2.778516  
     372A      2.788548   373A      2.797688   374A      2.810494  
     375A      2.815839   376A      2.836239   377A      2.854718  
     378A      2.865483   379A      2.880754   380A      2.883024  
     381A      2.893697   382A      2.907519   383A      2.913019  
     384A      2.921131   385A      2.938066   386A      2.949673  
     387A      2.959535   388A      2.974755   389A      2.985124  
     390A      2.990532   391A      2.993161   392A      3.011895  
     393A      3.014214   394A      3.015987   395A      3.030193  
     396A      3.045820   397A      3.058603   398A      3.063566  
     399A      3.082921   400A      3.087169   401A      3.093103  
     402A      3.103412   403A      3.116510   404A      3.124212  
     405A      3.131867   406A      3.140429   407A      3.152150  
     408A      3.163219   409A      3.164379   410A      3.178532  
     411A      3.183885   412A      3.193898   413A      3.205863  
     414A      3.211280   415A      3.228997   416A      3.235975  
     417A      3.242546   418A      3.251900   419A      3.262711  
     420A      3.270932   421A      3.284611   422A      3.291235  
     423A      3.294433   424A      3.300251   425A      3.307396  
     426A      3.309185   427A      3.325337   428A      3.330551  
     429A      3.337938   430A      3.346498   431A      3.351820  
     432A      3.363404   433A      3.371640   434A      3.389424  
     435A      3.398662   436A      3.405026   437A      3.425426  
     438A      3.426813   439A      3.438892   440A      3.448006  
     441A      3.475545   442A      3.477116   443A      3.486532  
     444A      3.490378   445A      3.501405   446A      3.518459  
     447A      3.540134   448A      3.551011   449A      3.554983  
     450A      3.572395   451A      3.584122   452A      3.604248  
     453A      3.619956   454A      3.647170   455A      3.662645  
     456A      3.670586   457A      3.688290   458A      3.696450  
     459A      3.703285   460A      3.723506   461A      3.745616  
     462A      3.752636   463A      3.764438   464A      3.786836  
     465A      3.799909   466A      3.826769   467A      3.837946  
     468A      3.851979   469A      3.857800   470A      3.873274  
     471A      3.893061   472A      3.899240   473A      3.905281  
     474A      3.928296   475A      3.933245   476A      3.940397  
     477A      3.963285   478A      3.987476   479A      4.011049  
     480A      4.032228   481A      4.058450   482A      4.071449  
     483A      4.107254   484A      4.121786   485A      4.147319  
     486A      4.156317   487A      4.176569   488A      4.189640  
     489A      4.219702   490A      4.242883   491A      4.251755  
     492A      4.272268   493A      4.300185   494A      4.301597  
     495A      4.323613   496A      4.341145   497A      4.359890  
     498A      4.380301   499A      4.386296   500A      4.400707  
     501A      4.403706   502A      4.418908   503A      4.455539  
     504A      4.480208   505A      4.493857   506A      4.520122  
     507A      4.528153   508A      4.541912   509A      4.579810  
     510A      4.591840   511A      4.610747   512A      4.650214  
     513A      4.669621   514A      4.692757   515A      4.729007  
     516A      4.736194   517A      4.746324   518A      4.755901  
     519A      4.765500   520A      4.782949   521A      4.811936  
     522A      4.822090   523A      4.830695   524A      4.840037  
     525A      4.848956   526A      4.879111   527A      4.898482  
     528A      4.915693   529A      4.937002   530A      4.953525  
     531A      4.995033   532A      4.998410   533A      5.017167  
     534A      5.031669   535A      5.043299   536A      5.047561  
     537A      5.080292   538A      5.084628   539A      5.105519  
     540A      5.120298   541A      5.141450   542A      5.151704  
     543A      5.168151   544A      5.180427   545A      5.217363  
     546A      5.222176   547A      5.235615   548A      5.238513  
     549A      5.259628   550A      5.277369   551A      5.289797  
     552A      5.297032   553A      5.324200   554A      5.332802  
     555A      5.340667   556A      5.355505   557A      5.359805  
     558A      5.430651   559A      5.447854   560A      5.470966  
     561A      5.492934   562A      5.523447   563A      5.539287  
     564A      5.548903   565A      5.619819   566A      5.637169  
     567A      5.652240   568A      5.665899   569A      5.700370  
     570A      5.719090   571A      5.790008   572A      5.835973  
     573A      5.875535   574A      5.890959   575A      5.943305  
     576A      5.987182   577A      6.010374   578A      6.108990  
     579A      6.129794   580A      6.298863   581A      6.333211  
     582A      6.340415   583A      6.402742   584A      6.449447  
     585A      6.576856   586A      6.601046   587A      6.712886  
     588A      6.720253   589A      6.835649   590A      6.845645  
     591A      7.068205   592A      7.098947   593A      7.102741  
     594A      7.165277   595A     22.322498   596A     22.423549  
     597A     22.528664   598A     22.546620   599A     22.557370  
     600A     22.751269   601A     23.198847   602A     23.329610  
     603A     23.366540   604A     31.949707   605A     32.089566  
     606A     32.458050   607A     32.531734   608A     32.561571  
     609A     43.925898   610A     43.942795  

    Final Occupation by Irrep:
              A 
    DOCC [    62 ]
    NA   [    62 ]
    NB   [    62 ]

  @DF-RKS Final Energy:  -779.02780034569889

   => Energetics <=

    Nuclear Repulsion Energy =           1197.9821540437469594
    One-Electron Energy =               -3437.9926584728518719
    Two-Electron Energy =                1548.4460217540151916
    DFT Exchange-Correlation Energy =     -87.3982151494418531
    Empirical Dispersion Energy =          -0.0651025211672969
    VV10 Nonlocal Energy =                  0.0000000000000000
    Total Energy =                       -779.0278003456988927

Computation Completed


Properties will be evaluated at   0.000000,   0.000000,   0.000000 [a0]

Properties computed using the SCF density matrix


 Multipole Moments:

 ------------------------------------------------------------------------------------
     Multipole            Electronic (a.u.)      Nuclear  (a.u.)        Total (a.u.)
 ------------------------------------------------------------------------------------

 L = 1.  Multiply by 2.5417464519 to convert [e a0] to [Debye]
 Dipole X            :        -15.5028393           14.4893309           -1.0135084
 Dipole Y            :        -13.1791010           12.6191641           -0.5599369
 Dipole Z            :        -26.8670248           27.6548630            0.7878382
 Magnitude           :                                                    1.4005062

 ------------------------------------------------------------------------------------

*** tstop() called on choehoyun-ui-MacBookAir.local at Sun Aug  9 02:09:29 2026
Module time:
	user time   =     457.63 seconds =       7.63 minutes
	system time =       7.71 seconds =       0.13 minutes
	total time  =         69 seconds =       1.15 minutes
Total time:
	user time   =     457.63 seconds =       7.63 minutes
	system time =       7.71 seconds =       0.13 minutes
	total time  =         69 seconds =       1.15 minutes

    Psi4 stopped on: Sunday, 09 August 2026 02:09AM
    Psi4 wall time for execution: 0:01:08.85

*** Psi4 exiting successfully. Buy a developer a beer!
