
    -----------------------------------------------------------------------
          Psi4: An Open-Source Ab Initio Electronic Structure Package
                               Psi4 1.11 release

                         Git: Rev {} zzzzzzz 


    D. G. A. Smith, L. A. Burns, A. C. Simmonett, R. M. Parrish,
    M. C. Schieber, R. Galvelis, P. Kraus, H. Kruse, R. Di Remigio,
    A. Alenaizan, A. M. James, S. Lehtola, J. P. Misiewicz, M. Scheurer,
    R. A. Shaw, J. B. Schriber, Y. Xie, Z. L. Glick, D. A. Sirianni,
    J. S. O'Brien, J. M. Waldrop, A. Kumar, E. G. Hohenstein,
    B. P. Pritchard, B. R. Brooks, H. F. Schaefer III, A. Yu. Sokolov,
    K. Patkowski, A. E. DePrince III, U. Bozkaya, R. A. King,
    F. A. Evangelista, J. M. Turney, T. D. Crawford, C. D. Sherrill,
    J. Chem. Phys. 152(18) 184108 (2020). https://doi.org/10.1063/5.0006002

                            Additional Code Authors
    E. T. Seidl, C. L. Janssen, E. F. Valeev, M. L. Leininger,
    J. F. Gonthier, R. M. Richard, H. R. McAlexander, M. Saitow, X. Wang,
    P. Verma, M. H. Lechner, A. Jiang, S. Behnle, A. G. Heide,
    M. F. Herbst, D. L. Poole, T. Győri, E. C. Mitchell, J. P. Pederson,
    and A. M. Wallace

             Previous Authors, Complete List of Code Contributors,
                       and Citations for Specific Modules
    https://github.com/psi4/psi4/blob/master/codemeta.json
    https://github.com/psi4/psi4/graphs/contributors
    https://psicode.org/psi4manual/master/introduction.html#citing-psifour

    -----------------------------------------------------------------------


    Psi4 started on: Sunday, 09 August 2026 12:55PM

    Process ID: 58920
    Host:       choehoyun-ui-MacBookAir.local
    PSIDATADIR: /Users/hoyoun/micromamba/envs/psi4env/share/psi4
    Memory:     500.0 MiB
    Threads:    8
    Addons:     a̶d̶c̶c̶, a̶m̶b̶i̶t̶, b̶s̶e̶, c̶c̶t̶3̶, c̶f̶o̶u̶r̶, c̶h̶e̶m̶p̶s̶2̶, c̶p̶p̶e̶, d̶d̶x̶, dftd3,
                d̶f̶t̶d̶4̶, dkh, ecpint, einsums, f̶o̶r̶t̶e̶, gauxc, g̶c̶p̶, g̶d̶m̶a̶,
                g̶e̶o̶m̶e̶t̶r̶i̶c̶, g̶p̶u̶_̶d̶f̶c̶c̶, i̶n̶t̶e̶g̶r̶a̶t̶o̶r̶x̶x̶, i̶p̶i̶,
                l̶i̶b̶e̶f̶p̶, m̶d̶i̶, m̶p̶2̶d̶, m̶r̶c̶c̶, ooo, o̶p̶e̶n̶f̶e̶r̶m̶i̶o̶n̶p̶s̶i̶4̶,
                pcmsolver, p̶s̶i̶4̶f̶o̶c̶k̶c̶i̶, p̶s̶i̶x̶a̶s̶, p̶y̶e̶i̶n̶s̶u̶m̶s̶, r̶e̶s̶p̶,
                s̶i̶m̶i̶n̶t̶, s̶n̶s̶m̶p̶2̶, v̶2̶r̶d̶m̶_̶c̶a̶s̶s̶c̶f̶

  ==> Input File <==

--------------------------------------------------------------------------
memory 3 GB
molecule mol {
0 1
Si 1.91873883557743 -1.10778438322522 0.38779598802526
Si 1.91873883557743 1.10778438322522 -0.38779598802526
Si -0.00000000000000 2.21556876645045 0.38779598802526
Si -1.91873883557743 1.10778438322522 -0.38779598802526
Si -1.91873883557743 -1.10778438322522 0.38779598802526
Si -0.00000000000000 -2.21556876645045 -0.38779598802526
H 1.89826765697373 -1.09596534274775 1.87596092013411
H 3.15145877171724 -1.81949557019096 -0.04784334469047
H 3.15145877171724 1.81949557019096 0.04784334469047
H 1.89826765697373 1.09596534274775 -1.87596092013411
H -0.00000000000000 3.63899114038191 -0.04784334469047
H -0.00000000000000 2.19193068549549 1.87596092013411
H -3.15145877171724 1.81949557019096 0.04784334469047
H -1.89826765697373 1.09596534274775 -1.87596092013411
H -3.15145877171724 -1.81949557019096 -0.04784334469047
H -1.89826765697373 -1.09596534274775 1.87596092013411
H -0.00000000000000 -2.19193068549549 -1.87596092013411
H -0.00000000000000 -3.63899114038191 0.04784334469047
units angstrom
no_reorient
no_com
}
set basis def2-TZVP
set scf_type df
set freeze_core true
set e_convergence 8
energy('b3lyp-d3bj')
--------------------------------------------------------------------------

  Memory set to   2.794 GiB by Python driver.

Scratch directory: /Users/hoyoun/Documents/Yonsei_AX_Camp/(진짜_이게_최종)/calibration/dft_work/_scratch/SI6H12_1/
   => Libint2 <=

    Primary   basis highest AM E, G, H:  7, 6, 3
    Auxiliary basis highest AM E, G, H:  7, 7, 4
    Onebody   basis highest AM E, G, H:  -, -, -
    Solid Harmonics ordering:            Gaussian

*** tstart() called on choehoyun-ui-MacBookAir.local
*** at Sun Aug  9 12:55:21 2026

   => Loading Basis Set <=

    Name: DEF2-TZVP
    Role: ORBITAL
    Keyword: BASIS
    atoms 1-6  entry SI         line   408 file /Users/hoyoun/micromamba/envs/psi4env/share/psi4/basis/def2-tzvp.gbs 
    atoms 7-18 entry H          line    15 file /Users/hoyoun/micromamba/envs/psi4env/share/psi4/basis/def2-tzvp.gbs 

   => B3LYP-D3(BJ): Empirical Dispersion <=

    Grimme's -D3 (BJ-damping) Dispersion Correction
    Grimme S.; Ehrlich S.; Goerigk L. (2011), J. Comput. Chem., 32: 1456

        s6 =       1.000000
        s8 =       1.988900
        a1 =       0.398100
        a2 =       4.421100


         ---------------------------------------------------------
                                   SCF
               by Justin Turney, Rob Parrish, Andy Simmonett
                          and Daniel G. A. Smith
                              RKS Reference
                        8 Threads,   2861 MiB Core
         ---------------------------------------------------------

  ==> Geometry <==

    Molecular point group: c2h
    Full point group: D3d

    Geometry (in Angstrom), charge = 0, multiplicity = 1:

       Center              X                  Y                   Z               Mass       
    ------------   -----------------  -----------------  -----------------  -----------------
         SI           1.918738835577    -1.107784383225     0.387795988025    27.976926534650
         SI           1.918738835577     1.107784383225    -0.387795988025    27.976926534650
         SI           0.000000000000     2.215568766450     0.387795988025    27.976926534650
         SI          -1.918738835577     1.107784383225    -0.387795988025    27.976926534650
         SI          -1.918738835577    -1.107784383225     0.387795988025    27.976926534650
         SI           0.000000000000    -2.215568766450    -0.387795988025    27.976926534650
         H            1.898267656974    -1.095965342748     1.875960920134     1.007825032230
         H            3.151458771717    -1.819495570191    -0.047843344690     1.007825032230
         H            3.151458771717     1.819495570191     0.047843344690     1.007825032230
         H            1.898267656974     1.095965342748    -1.875960920134     1.007825032230
         H            0.000000000000     3.638991140382    -0.047843344690     1.007825032230
         H            0.000000000000     2.191930685495     1.875960920134     1.007825032230
         H           -3.151458771717     1.819495570191     0.047843344690     1.007825032230
         H           -1.898267656974     1.095965342748    -1.875960920134     1.007825032230
         H           -3.151458771717    -1.819495570191    -0.047843344690     1.007825032230
         H           -1.898267656974    -1.095965342748     1.875960920134     1.007825032230
         H            0.000000000000    -2.191930685495    -1.875960920134     1.007825032230
         H            0.000000000000    -3.638991140382     0.047843344690     1.007825032230

  Running in c2h symmetry.

  Rotational constants: A =      0.03285  B =      0.03285  C =      0.01807 [cm^-1]
  Rotational constants: A =    984.95741  B =    984.95741  C =    541.60259 [MHz]
  Nuclear repulsion =  675.865225689492377

  Charge       = 0
  Multiplicity = 1
  Electrons    = 96
  Nalpha       = 48
  Nbeta        = 48

  ==> Algorithm <==

  SCF Algorithm Type is DF.
  DIIS enabled.
  MOM disabled.
  Fractional occupation disabled.
  Guess Type is SAD.
  Energy threshold   = 1.00e-08
  Density threshold  = 1.00e-06
  Integral threshold = 1.00e-12

  ==> Primary Basis <==

  Basis Set: DEF2-TZVP
    Blend: DEF2-TZVP
    Number of shells: 126
    Number of basis functions: 294
    Number of Cartesian functions: 324
    Spherical Harmonics?: true
    Max angular momentum: 3

  ==> DFT Potential <==

   => LibXC <=

    Version 7.1.2
    S. Lehtola, C. Steigemann, M. J. T. Oliveira, and M. A. L. Marques,  SoftwareX 7, 1–5 (2018) (10.1016/j.softx.2017.11.002)

   => Composite Functional: B3LYP-D3BJ2B <= 

    B3LYP-d3bj2b Hyb-GGA Exchange-Correlation Functional

    P. J. Stephens, F. J. Devlin, C. F. Chabalowski, and M. J. Frisch,  J. Phys. Chem. 98, 11623 (1994) (10.1021/j100096a001)

    Deriv               =              1
    GGA                 =           TRUE
    Meta                =          FALSE

    Exchange Hybrid     =           TRUE
    MP2 Hybrid          =          FALSE

   => Exchange Functionals <=

    0.0800   Slater exchange
    0.7200         Becke 88

   => Exact (HF) Exchange <=

    0.2000               HF 

   => Correlation Functionals <=

    0.1900   Vosko, Wilk & Nusair (VWN5_RPA)
    0.8100   Lee, Yang & Parr

   => LibXC Density Thresholds  <==

    XC_HYB_GGA_XC_B3LYP:  1.00E-15 

   => Molecular Quadrature <=

    Radial Scheme          =       TREUTLER
    Pruning Scheme         =           NONE
    Nuclear Scheme         =       TREUTLER

    Blocking Scheme        =         OCTREE
    BS radius alpha        =              1
    Pruning alpha          =              1
    Radial Points          =             75
    Spherical Points       =            302
    Total Points           =         381142
    Total Blocks           =           2836
    Max Points             =            256
    Max Functions          =            251
    Weights Tolerance      =       1.00E-15

   => Loading Basis Set <=

    Name: (DEF2-TZVP AUX)
    Role: JKFIT
    Keyword: DF_BASIS_SCF
    atoms 1-6  entry SI         line   737 file /Users/hoyoun/micromamba/envs/psi4env/share/psi4/basis/def2-universal-jkfit.gbs 
    atoms 7-18 entry H          line    18 file /Users/hoyoun/micromamba/envs/psi4env/share/psi4/basis/def2-universal-jkfit.gbs 

  ==> Integral Setup <==

  DFHelper Memory: AOs need 0.610 GiB; user supplied 0.610 GiB. 
  SCF_SUBTYPE=INCORE selected. In-core MEM_DF algorithm will be used.
  Using in-core AOs.

  ==> MemDFJK: Density-Fitted J/K Matrices <==

    J tasked:                   Yes
    K tasked:                   Yes
    wK tasked:                   No
    OpenMP threads:               8
    Memory [MiB]:               624
    Algorithm:                 Core
    Schwarz Cutoff:           1E-12
    Mask sparsity (%):       8.4965
    Fitting Condition:        1E-10

   => Auxiliary Basis Set <=

  Basis Set: (DEF2-TZVP AUX)
    Blend: DEF2-UNIVERSAL-JKFIT
    Number of shells: 300
    Number of basis functions: 984
    Number of Cartesian functions: 1170
    Spherical Harmonics?: true
    Max angular momentum: 4

  Cached 50.0% of DFT collocation blocks in 1.015 [GiB].

  Minimum eigenvalue in the overlap matrix is 1.2775935780E-03.
  Reciprocal condition number of the overlap matrix is 2.4883971594E-04.
    Using symmetric orthogonalization.

  ==> Pre-Iterations <==

  SCF Guess: Superposition of Atomic Densities via on-the-fly atomic UHF (no occupation information).

   -------------------------
    Irrep   Nso     Nmo    
   -------------------------
     Ag        84      84 
     Bg        63      63 
     Au        63      63 
     Bu        84      84 
   -------------------------
    Total     294     294
   -------------------------

  ==> Iterations <==

                           Total Energy        Delta E     RMS |[F,P]|

   @DF-RKS iter SAD: -1743.75410688673333   -1.74375e+03   0.00000e+00 
   @DF-RKS iter   1: -1744.20767675787533   -4.53570e-01   5.03433e-03 ADIIS/DIIS
   @DF-RKS iter   2: -1744.25905777754042   -5.13810e-02   3.86346e-03 ADIIS/DIIS
   @DF-RKS iter   3: -1744.39435547095445   -1.35298e-01   9.54411e-04 ADIIS/DIIS
   @DF-RKS iter   4: -1744.40954536996264   -1.51899e-02   1.04976e-04 ADIIS/DIIS
   @DF-RKS iter   5: -1744.40972557917712   -1.80209e-04   1.50097e-05 DIIS
   @DF-RKS iter   6: -1744.40972934223964   -3.76306e-06   1.67090e-06 DIIS
   @DF-RKS iter   7: -1744.40972939640051   -5.41609e-08   2.26787e-07 DIIS
   @DF-RKS iter   8: -1744.40972939748644   -1.08594e-09   2.77399e-08 DIIS
  Energy and wave function converged.


  ==> Post-Iterations <==

   Electrons on quadrature grid:
      Ntotal   =   96.0000849236 ; deviation = 8.492e-05 

    Orbital Energies [Eh]
    ---------------------

    Doubly Occupied:                                                      

       1Ag   -66.108132     1Bg   -66.108132     1Bu   -66.108130  
       2Bu   -66.108126     1Au   -66.108126     2Ag   -66.108122  
       3Ag    -5.272777     3Bu    -5.272741     2Au    -5.272740  
       4Ag    -5.272665     2Bg    -5.272665     4Bu    -5.272617  
       3Au    -3.630795     5Ag    -3.630682     3Bg    -3.630680  
       4Au    -3.630455     5Bu    -3.630452     6Ag    -3.630356  
       6Bu    -3.630133     7Ag    -3.630102     4Bg    -3.630100  
       7Bu    -3.630076     5Au    -3.630072     8Ag    -3.630063  
       5Bg    -3.630005     8Bu    -3.630003     6Au    -3.630001  
       6Bg    -3.629959     9Ag    -3.629958     9Bu    -3.629918  
      10Ag    -0.599937    10Bu    -0.561518     7Au    -0.561518  
       7Bg    -0.496543    11Ag    -0.496543    11Bu    -0.467450  
      12Bu    -0.375290    12Ag    -0.375073     8Bg    -0.365578  
      13Ag    -0.365578    13Bu    -0.351107     8Au    -0.351107  
      14Ag    -0.326062    14Bu    -0.315274     9Au    -0.315273  
      15Ag    -0.282696     9Bg    -0.282695    10Au    -0.278767  

    Virtual:                                                              

      16Ag    -0.033035    15Bu    -0.027030    17Ag    -0.013954  
      10Bg    -0.013950    16Bu    -0.009277    11Au    -0.009275  
      17Bu     0.010345    18Ag     0.016622    11Bg     0.016634  
      18Bu     0.029492    12Au     0.029496    12Bg     0.042639  
      19Bu     0.047103    19Ag     0.051889    20Ag     0.079956  
      13Bg     0.079962    13Au     0.087164    20Bu     0.087167  
      14Au     0.099055    14Bg     0.125111    21Ag     0.125113  
      22Ag     0.129854    21Bu     0.142397    22Bu     0.154049  
      15Au     0.154051    23Ag     0.167000    15Bg     0.167001  
      24Ag     0.174702    23Bu     0.176571    16Au     0.176574  
      24Bu     0.203971    25Ag     0.205313    16Bg     0.205316  
      25Bu     0.222388    17Au     0.222404    17Bg     0.251639  
      26Bu     0.257492    18Au     0.257494    26Ag     0.262342  
      18Bg     0.269760    27Ag     0.285622    19Au     0.306670  
      28Ag     0.311856    19Bg     0.311865    29Ag     0.314418  
      20Bg     0.314436    27Bu     0.319016    30Ag     0.328136  
      20Au     0.336422    28Bu     0.336427    31Ag     0.348984  
      21Bg     0.348989    29Bu     0.349665    30Bu     0.387921  
      21Au     0.387943    31Bu     0.398777    22Au     0.403788  
      32Ag     0.413878    32Bu     0.416756    23Au     0.416758  
      33Ag     0.429047    22Bg     0.429047    33Bu     0.440383  
      24Au     0.440388    34Ag     0.458006    23Bg     0.458009  
      35Ag     0.465874    34Bu     0.491106    36Ag     0.532227  
      24Bg     0.532230    35Bu     0.540665    25Au     0.540680  
      26Au     0.553976    36Bu     0.553976    37Bu     0.581372  
      37Ag     0.617270    38Ag     0.625171    25Bg     0.625185  
      26Bg     0.635305    38Bu     0.671099    27Au     0.671100  
      27Bg     0.683417    39Ag     0.683421    39Bu     0.711939  
      28Au     0.852999    40Bu     0.856255    29Au     0.856258  
      28Bg     0.878563    29Bg     0.879686    40Ag     0.879687  
      41Ag     0.907309    42Ag     0.916441    30Bg     0.916443  
      41Bu     0.918651    30Au     0.918653    31Bg     0.953988  
      43Ag     0.953989    44Ag     0.967505    42Bu     0.986471  
      31Au     1.004516    43Bu     1.005902    32Au     1.005910  
      44Bu     1.010279    32Bg     1.014186    45Bu     1.032159  
      33Au     1.032172    45Ag     1.041281    33Bg     1.041282  
      46Ag     1.045867    46Bu     1.048717    34Au     1.048723  
      47Bu     1.054914    47Ag     1.057556    35Au     1.062131  
      48Bu     1.067673    36Au     1.067680    48Ag     1.071719  
      34Bg     1.071724    35Bg     1.087188    49Ag     1.087190  
      36Bg     1.117992    49Bu     1.141320    37Au     1.158256  
      50Bu     1.158258    37Bg     1.165137    50Ag     1.179912  
      38Bg     1.179912    38Au     1.196581    51Ag     1.200077  
      39Bg     1.200085    39Au     1.219161    51Bu     1.219162  
      52Ag     1.223010    52Bu     1.256849    40Au     1.256850  
      53Bu     1.264540    53Ag     1.265165    40Bg     1.265182  
      54Bu     1.275661    54Ag     1.328482    41Au     1.331428  
      55Bu     1.331431    55Ag     1.334660    41Bg     1.334670  
      56Ag     1.379202    42Bg     1.379215    56Bu     1.408232  
      42Au     1.408241    57Bu     1.438069    57Ag     1.438869  
      43Au     1.536473    58Ag     1.540695    44Au     1.560062  
      58Bu     1.560063    59Ag     1.567583    43Bg     1.567601  
      59Bu     1.577490    45Au     1.644943    60Ag     1.653363  
      44Bg     1.653377    46Au     1.654685    60Bu     1.654686  
      61Ag     1.676758    45Bg     1.676886    46Bg     1.688823  
      62Ag     1.688825    61Bu     1.710364    47Au     1.725736  
      62Bu     1.725739    63Ag     1.802731    47Bg     1.802740  
      48Au     1.882501    63Bu     1.882505    64Bu     1.887942  
      64Ag     1.888726    65Ag     1.909627    48Bg     1.909631  
      49Bg     1.917769    49Au     1.918554    65Bu     1.918555  
      50Au     1.921521    66Ag     1.954195    67Ag     1.980076  
      50Bg     1.980080    66Bu     2.000048    51Au     2.000053  
      67Bu     2.007365    52Au     2.007367    68Ag     2.012978  
      51Bg     2.012981    52Bg     2.020184    53Au     2.044229  
      69Ag     2.051284    53Bg     2.051285    68Bu     2.054087  
      69Bu     2.066213    54Au     2.066221    54Bg     2.076962  
      70Bu     2.251078    70Ag     2.288732    55Bg     2.291844  
      71Ag     2.291845    71Bu     2.345220    55Au     2.345224  
      72Bu     2.352354    72Ag     2.358101    56Bg     2.358105  
      56Au     2.370795    73Bu     2.370796    73Ag     2.383533  
      74Ag     2.558172    74Bu     2.699338    75Bu     2.711729  
      57Au     2.711736    75Ag     2.793808    57Bg     2.793818  
      76Ag     2.840416    76Bu     2.863223    58Au     2.863225  
      58Bg     2.888899    77Ag     2.888905    77Bu     2.939298  
      59Bg     6.154392    78Ag     6.154396    78Bu     6.192258  
      79Bu     6.207368    59Au     6.207374    60Au     6.228653  
      80Bu     6.228655    79Ag     6.228989    80Ag     6.243530  
      61Au     6.246166    60Bg     6.270784    81Ag     6.270793  
      81Bu     6.295645    82Ag     6.388610    61Bg     6.388622  
      62Bg     6.413342    62Au     6.428931    82Bu     6.428940  
      83Ag    10.366026    83Bu    10.492505    63Au    10.492508  
      84Bu    10.580649    84Ag    10.648928    63Bg    10.648929  

    Final Occupation by Irrep:
             Ag    Bg    Au    Bu 
    DOCC [    15,    9,   10,   14 ]
    NA   [    15,    9,   10,   14 ]
    NB   [    15,    9,   10,   14 ]

  @DF-RKS Final Energy: -1744.40972939748644

   => Energetics <=

    Nuclear Repulsion Energy =            675.8652256894923767
    One-Electron Energy =               -3764.1241560797716375
    Two-Electron Energy =                1448.7860985489489849
    DFT Exchange-Correlation Energy =    -104.8911193895736744
    Empirical Dispersion Energy =          -0.0457781665825433
    VV10 Nonlocal Energy =                  0.0000000000000000
    Total Energy =                      -1744.4097293974864442

Computation Completed


Properties will be evaluated at   0.000000,   0.000000,   0.000000 [a0]

Properties computed using the SCF density matrix


 Multipole Moments:

 ------------------------------------------------------------------------------------
     Multipole            Electronic (a.u.)      Nuclear  (a.u.)        Total (a.u.)
 ------------------------------------------------------------------------------------

 L = 1.  Multiply by 2.5417464519 to convert [e a0] to [Debye]
 Dipole X            :          0.0000000           -0.0000000           -0.0000000
 Dipole Y            :          0.0000000           -0.0000000           -0.0000000
 Dipole Z            :          0.0000000            0.0000000            0.0000000
 Magnitude           :                                                    0.0000000

 ------------------------------------------------------------------------------------

*** tstop() called on choehoyun-ui-MacBookAir.local at Sun Aug  9 12:55:32 2026
Module time:
	user time   =      60.50 seconds =       1.01 minutes
	system time =       1.70 seconds =       0.03 minutes
	total time  =         11 seconds =       0.18 minutes
Total time:
	user time   =      60.50 seconds =       1.01 minutes
	system time =       1.70 seconds =       0.03 minutes
	total time  =         11 seconds =       0.18 minutes

    Psi4 stopped on: Sunday, 09 August 2026 12:55PM
    Psi4 wall time for execution: 0:00:10.36

*** Psi4 exiting successfully. Buy a developer a beer!
