
    -----------------------------------------------------------------------
          Psi4: An Open-Source Ab Initio Electronic Structure Package
                               Psi4 1.11 release

                         Git: Rev {} zzzzzzz 


    D. G. A. Smith, L. A. Burns, A. C. Simmonett, R. M. Parrish,
    M. C. Schieber, R. Galvelis, P. Kraus, H. Kruse, R. Di Remigio,
    A. Alenaizan, A. M. James, S. Lehtola, J. P. Misiewicz, M. Scheurer,
    R. A. Shaw, J. B. Schriber, Y. Xie, Z. L. Glick, D. A. Sirianni,
    J. S. O'Brien, J. M. Waldrop, A. Kumar, E. G. Hohenstein,
    B. P. Pritchard, B. R. Brooks, H. F. Schaefer III, A. Yu. Sokolov,
    K. Patkowski, A. E. DePrince III, U. Bozkaya, R. A. King,
    F. A. Evangelista, J. M. Turney, T. D. Crawford, C. D. Sherrill,
    J. Chem. Phys. 152(18) 184108 (2020). https://doi.org/10.1063/5.0006002

                            Additional Code Authors
    E. T. Seidl, C. L. Janssen, E. F. Valeev, M. L. Leininger,
    J. F. Gonthier, R. M. Richard, H. R. McAlexander, M. Saitow, X. Wang,
    P. Verma, M. H. Lechner, A. Jiang, S. Behnle, A. G. Heide,
    M. F. Herbst, D. L. Poole, T. Győri, E. C. Mitchell, J. P. Pederson,
    and A. M. Wallace

             Previous Authors, Complete List of Code Contributors,
                       and Citations for Specific Modules
    https://github.com/psi4/psi4/blob/master/codemeta.json
    https://github.com/psi4/psi4/graphs/contributors
    https://psicode.org/psi4manual/master/introduction.html#citing-psifour

    -----------------------------------------------------------------------


    Psi4 started on: Monday, 10 August 2026 06:19PM

    Process ID: 74322
    Host:       choehoyun-ui-MacBookAir.local
    PSIDATADIR: /Users/hoyoun/micromamba/envs/psi4env/share/psi4
    Memory:     500.0 MiB
    Threads:    8
    Addons:     a̶d̶c̶c̶, a̶m̶b̶i̶t̶, b̶s̶e̶, c̶c̶t̶3̶, c̶f̶o̶u̶r̶, c̶h̶e̶m̶p̶s̶2̶, c̶p̶p̶e̶, d̶d̶x̶, dftd3,
                d̶f̶t̶d̶4̶, dkh, ecpint, einsums, f̶o̶r̶t̶e̶, gauxc, g̶c̶p̶, g̶d̶m̶a̶,
                g̶e̶o̶m̶e̶t̶r̶i̶c̶, g̶p̶u̶_̶d̶f̶c̶c̶, i̶n̶t̶e̶g̶r̶a̶t̶o̶r̶x̶x̶, i̶p̶i̶,
                l̶i̶b̶e̶f̶p̶, m̶d̶i̶, m̶p̶2̶d̶, m̶r̶c̶c̶, ooo, o̶p̶e̶n̶f̶e̶r̶m̶i̶o̶n̶p̶s̶i̶4̶,
                pcmsolver, p̶s̶i̶4̶f̶o̶c̶k̶c̶i̶, p̶s̶i̶x̶a̶s̶, p̶y̶e̶i̶n̶s̶u̶m̶s̶, r̶e̶s̶p̶,
                s̶i̶m̶i̶n̶t̶, s̶n̶s̶m̶p̶2̶, v̶2̶r̶d̶m̶_̶c̶a̶s̶s̶c̶f̶

  ==> Input File <==

--------------------------------------------------------------------------
memory 3 GB
molecule mol {
0 1
O -2.78186487855658 0.81837838240626 1.83424325227098
C -3.27286488097318 0.92837838294765 0.73524324686195
O -4.09686488502872 1.93937838792357 0.38724324514917
H -4.19086488549137 2.48737839062070 1.18124324905706
C -3.05186487988546 -0.00362162163945 -0.42075675882763
H -2.63786487784785 0.57037838118566 -1.25475676293239
H -4.01586488463006 -0.38362162350972 -0.76075676050103
N -2.18186487560352 -1.07262162690083 -0.02275675686876
H -1.69686487321646 -1.02762162667935 0.86724324751162
C -1.87086487407284 -2.04362163167987 -0.91175676124422
O -2.35786487646975 -2.10962163200471 -2.03575676677630
C -0.84686486903294 -3.04762163662134 -0.39975675872427
H -0.79686486878686 -3.86062164062274 -1.11675676225318
H -1.15386487054393 -3.42962163850145 0.57424324606954
N 0.46613513742935 -2.45162163368796 -0.26275675804999
H 1.18313514095826 -2.55962163421951 -0.96575676151000
C 0.81713513915689 -1.75362163025255 0.83024324732952
O 0.05513513540650 -1.53662162918453 1.77624325198552
C 2.26313514627378 -1.25962162782120 0.83424324734920
N 2.86713514924654 -1.42362162862837 -0.48675675915246
H 2.65013514817851 -0.61262162463681 -1.05775676196280
H 3.87413515420277 -1.46262162882032 -0.40775675876364
H 2.78913514886264 -1.92362163108926 1.52424325074523
C 2.32113514655925 0.16837837920710 1.40924325017922
H 1.82913514413773 0.16137837917264 2.38124325496319
H 3.37113515172711 0.43137838050153 1.55724325090765
C 1.66713514334041 1.16637838411903 0.49824324569549
C 0.30613513664186 1.46937838561033 0.62424324631563
H -0.26686486617831 1.01737838338569 1.42324325024813
C -0.30186486635058 2.36537839002024 -0.25175675799585
H -1.34786487149875 2.61637839125561 -0.12975675739539
C 0.43213513726201 2.96137839295362 -1.27775676304559
H -0.04486486508568 3.65537839636934 -1.95575676638256
C 1.78813514393594 2.67437839154107 -1.40775676368542
H 2.37213514681026 3.14637839386415 -2.18675676751949
C 2.39913514694314 1.78837838718038 -0.52075675931981
H 3.46313515217991 1.59637838623540 -0.60375675972831
units angstrom
no_reorient
no_com
}
set basis def2-SVP
set scf_type df
set freeze_core true
set e_convergence 8
energy('b3lyp-d3bj')
--------------------------------------------------------------------------

  Memory set to   2.794 GiB by Python driver.

Scratch directory: /Users/hoyoun/Documents/Yonsei_AX_Camp/(진짜_이게_최종)/calibration/dft_work/_scratch/470/
   => Libint2 <=

    Primary   basis highest AM E, G, H:  7, 6, 3
    Auxiliary basis highest AM E, G, H:  7, 7, 4
    Onebody   basis highest AM E, G, H:  -, -, -
    Solid Harmonics ordering:            Gaussian

*** tstart() called on choehoyun-ui-MacBookAir.local
*** at Mon Aug 10 18:19:29 2026

   => Loading Basis Set <=

    Name: DEF2-SVP
    Role: ORBITAL
    Keyword: BASIS
    atoms 1, 3, 11, 18                                           entry O          line   130 file /Users/hoyoun/micromamba/envs/psi4env/share/psi4/basis/def2-svp.gbs 
    atoms 2, 5, 10, 12, 17, 19, 24, 27-28, 30, 32, 34, 36        entry C          line    90 file /Users/hoyoun/micromamba/envs/psi4env/share/psi4/basis/def2-svp.gbs 
    atoms 4, 6-7, 9, 13-14, 16, 21-23, 25-26, 29, 31, 33, 35, 37 entry H          line    15 file /Users/hoyoun/micromamba/envs/psi4env/share/psi4/basis/def2-svp.gbs 
    atoms 8, 15, 20                                              entry N          line   110 file /Users/hoyoun/micromamba/envs/psi4env/share/psi4/basis/def2-svp.gbs 

   => B3LYP-D3(BJ): Empirical Dispersion <=

    Grimme's -D3 (BJ-damping) Dispersion Correction
    Grimme S.; Ehrlich S.; Goerigk L. (2011), J. Comput. Chem., 32: 1456

        s6 =       1.000000
        s8 =       1.988900
        a1 =       0.398100
        a2 =       4.421100


         ---------------------------------------------------------
                                   SCF
               by Justin Turney, Rob Parrish, Andy Simmonett
                          and Daniel G. A. Smith
                              RKS Reference
                        8 Threads,   2861 MiB Core
         ---------------------------------------------------------

  ==> Geometry <==

    Molecular point group: c1
    Full point group: C1

    Geometry (in Angstrom), charge = 0, multiplicity = 1:

       Center              X                  Y                   Z               Mass       
    ------------   -----------------  -----------------  -----------------  -----------------
         O           -2.781864878557     0.818378382406     1.834243252271    15.994914619570
         C           -3.272864880973     0.928378382948     0.735243246862    12.000000000000
         O           -4.096864885029     1.939378387924     0.387243245149    15.994914619570
         H           -4.190864885491     2.487378390621     1.181243249057     1.007825032230
         C           -3.051864879885    -0.003621621639    -0.420756758828    12.000000000000
         H           -2.637864877848     0.570378381186    -1.254756762932     1.007825032230
         H           -4.015864884630    -0.383621623510    -0.760756760501     1.007825032230
         N           -2.181864875604    -1.072621626901    -0.022756756869    14.003074004430
         H           -1.696864873216    -1.027621626679     0.867243247512     1.007825032230
         C           -1.870864874073    -2.043621631680    -0.911756761244    12.000000000000
         O           -2.357864876470    -2.109621632005    -2.035756766776    15.994914619570
         C           -0.846864869033    -3.047621636621    -0.399756758724    12.000000000000
         H           -0.796864868787    -3.860621640623    -1.116756762253     1.007825032230
         H           -1.153864870544    -3.429621638501     0.574243246070     1.007825032230
         N            0.466135137429    -2.451621633688    -0.262756758050    14.003074004430
         H            1.183135140958    -2.559621634220    -0.965756761510     1.007825032230
         C            0.817135139157    -1.753621630253     0.830243247330    12.000000000000
         O            0.055135135407    -1.536621629185     1.776243251986    15.994914619570
         C            2.263135146274    -1.259621627821     0.834243247349    12.000000000000
         N            2.867135149247    -1.423621628628    -0.486756759152    14.003074004430
         H            2.650135148179    -0.612621624637    -1.057756761963     1.007825032230
         H            3.874135154203    -1.462621628820    -0.407756758764     1.007825032230
         H            2.789135148863    -1.923621631089     1.524243250745     1.007825032230
         C            2.321135146559     0.168378379207     1.409243250179    12.000000000000
         H            1.829135144138     0.161378379173     2.381243254963     1.007825032230
         H            3.371135151727     0.431378380502     1.557243250908     1.007825032230
         C            1.667135143340     1.166378384119     0.498243245695    12.000000000000
         C            0.306135136642     1.469378385610     0.624243246316    12.000000000000
         H           -0.266864866178     1.017378383386     1.423243250248     1.007825032230
         C           -0.301864866351     2.365378390020    -0.251756757996    12.000000000000
         H           -1.347864871499     2.616378391256    -0.129756757395     1.007825032230
         C            0.432135137262     2.961378392954    -1.277756763046    12.000000000000
         H           -0.044864865086     3.655378396369    -1.955756766383     1.007825032230
         C            1.788135143936     2.674378391541    -1.407756763685    12.000000000000
         H            2.372135146810     3.146378393864    -2.186756767519     1.007825032230
         C            2.399135146943     1.788378387180    -0.520756759320    12.000000000000
         H            3.463135152180     1.596378386235    -0.603756759728     1.007825032230

  Running in c1 symmetry.

  Rotational constants: A =      0.01317  B =      0.01009  C =      0.00731 [cm^-1]
  Rotational constants: A =    394.80294  B =    302.40009  C =    219.22165 [MHz]
  Nuclear repulsion = 1642.108575036086222

  Charge       = 0
  Multiplicity = 1
  Electrons    = 148
  Nalpha       = 74
  Nbeta        = 74

  ==> Algorithm <==

  SCF Algorithm Type is DF.
  DIIS enabled.
  MOM disabled.
  Fractional occupation disabled.
  Guess Type is SAD.
  Energy threshold   = 1.00e-08
  Density threshold  = 1.00e-06
  Integral threshold = 1.00e-12

  ==> Primary Basis <==

  Basis Set: DEF2-SVP
    Blend: DEF2-SVP
    Number of shells: 171
    Number of basis functions: 365
    Number of Cartesian functions: 385
    Spherical Harmonics?: true
    Max angular momentum: 2

  ==> DFT Potential <==

   => LibXC <=

    Version 7.1.2
    S. Lehtola, C. Steigemann, M. J. T. Oliveira, and M. A. L. Marques,  SoftwareX 7, 1–5 (2018) (10.1016/j.softx.2017.11.002)

   => Composite Functional: B3LYP-D3BJ2B <= 

    B3LYP-d3bj2b Hyb-GGA Exchange-Correlation Functional

    P. J. Stephens, F. J. Devlin, C. F. Chabalowski, and M. J. Frisch,  J. Phys. Chem. 98, 11623 (1994) (10.1021/j100096a001)

    Deriv               =              1
    GGA                 =           TRUE
    Meta                =          FALSE

    Exchange Hybrid     =           TRUE
    MP2 Hybrid          =          FALSE

   => Exchange Functionals <=

    0.0800   Slater exchange
    0.7200         Becke 88

   => Exact (HF) Exchange <=

    0.2000               HF 

   => Correlation Functionals <=

    0.1900   Vosko, Wilk & Nusair (VWN5_RPA)
    0.8100   Lee, Yang & Parr

   => LibXC Density Thresholds  <==

    XC_HYB_GGA_XC_B3LYP:  1.00E-15 

   => Molecular Quadrature <=

    Radial Scheme          =       TREUTLER
    Pruning Scheme         =           NONE
    Nuclear Scheme         =       TREUTLER

    Blocking Scheme        =         OCTREE
    BS radius alpha        =              1
    Pruning alpha          =              1
    Radial Points          =             75
    Spherical Points       =            302
    Total Points           =         756323
    Total Blocks           =           5435
    Max Points             =            256
    Max Functions          =            297
    Weights Tolerance      =       1.00E-15

   => Loading Basis Set <=

    Name: (DEF2-SVP AUX)
    Role: JKFIT
    Keyword: DF_BASIS_SCF
    atoms 1, 3, 11, 18                                           entry O          line   318 file /Users/hoyoun/micromamba/envs/psi4env/share/psi4/basis/def2-universal-jkfit.gbs 
    atoms 2, 5, 10, 12, 17, 19, 24, 27-28, 30, 32, 34, 36        entry C          line   198 file /Users/hoyoun/micromamba/envs/psi4env/share/psi4/basis/def2-universal-jkfit.gbs 
    atoms 4, 6-7, 9, 13-14, 16, 21-23, 25-26, 29, 31, 33, 35, 37 entry H          line    18 file /Users/hoyoun/micromamba/envs/psi4env/share/psi4/basis/def2-universal-jkfit.gbs 
    atoms 8, 15, 20                                              entry N          line   258 file /Users/hoyoun/micromamba/envs/psi4env/share/psi4/basis/def2-universal-jkfit.gbs 

  ==> Integral Setup <==

  DFHelper Memory: AOs need 1.465 GiB; user supplied 1.465 GiB. 
  SCF_SUBTYPE=INCORE selected. In-core MEM_DF algorithm will be used.
  Using in-core AOs.

  ==> MemDFJK: Density-Fitted J/K Matrices <==

    J tasked:                   Yes
    K tasked:                   Yes
    wK tasked:                   No
    OpenMP threads:               8
    Memory [MiB]:              1500
    Algorithm:                 Core
    Schwarz Cutoff:           1E-12
    Mask sparsity (%):      22.1970
    Fitting Condition:        1E-10

   => Auxiliary Basis Set <=

  Basis Set: (DEF2-SVP AUX)
    Blend: DEF2-UNIVERSAL-JKFIT
    Number of shells: 602
    Number of basis functions: 1820
    Number of Cartesian functions: 2148
    Spherical Harmonics?: true
    Max angular momentum: 4

  Cached 14.3% of DFT collocation blocks in 0.570 [GiB].

  Minimum eigenvalue in the overlap matrix is 2.6797083785E-04.
  Reciprocal condition number of the overlap matrix is 3.8774393292E-05.
    Using symmetric orthogonalization.

  ==> Pre-Iterations <==

  SCF Guess: Superposition of Atomic Densities via on-the-fly atomic UHF (no occupation information).

   -------------------------
    Irrep   Nso     Nmo    
   -------------------------
     A        365     365 
   -------------------------
    Total     365     365
   -------------------------

  ==> Iterations <==

                           Total Energy        Delta E     RMS |[F,P]|

   @DF-RKS iter SAD:  -969.47390216556221   -9.69474e+02   0.00000e+00 
   @DF-RKS iter   1:  -969.09074770695906    3.83154e-01   4.16689e-03 DIIS/ADIIS
   @DF-RKS iter   2:  -968.53548263557491    5.55265e-01   5.30413e-03 DIIS/ADIIS
   @DF-RKS iter   3:  -970.13587585922471   -1.60039e+00   1.09410e-03 DIIS/ADIIS
   @DF-RKS iter   4:  -970.19536479686394   -5.94889e-02   3.74467e-04 DIIS/ADIIS
   @DF-RKS iter   5:  -970.20219394760977   -6.82915e-03   1.09777e-04 DIIS/ADIIS
   @DF-RKS iter   6:  -970.20283835428791   -6.44407e-04   3.09025e-05 DIIS
   @DF-RKS iter   7:  -970.20288560152801   -4.72472e-05   1.17308e-05 DIIS
   @DF-RKS iter   8:  -970.20289221560620   -6.61408e-06   4.22431e-06 DIIS
   @DF-RKS iter   9:  -970.20289311339013   -8.97784e-07   9.49809e-07 DIIS
   @DF-RKS iter  10:  -970.20289315816092   -4.47708e-08   4.27971e-07 DIIS
   @DF-RKS iter  11:  -970.20289316946128   -1.13004e-08   1.16937e-07 DIIS
   @DF-RKS iter  12:  -970.20289317019456   -7.33280e-10   5.11212e-08 DIIS
  Energy and wave function converged.


  ==> Post-Iterations <==

   Electrons on quadrature grid:
      Ntotal   =  148.0000388508 ; deviation = 3.885e-05 

    Orbital Energies [Eh]
    ---------------------

    Doubly Occupied:                                                      

       1A    -19.196611     2A    -19.141321     3A    -19.103984  
       4A    -19.091658     5A    -14.356451     6A    -14.341320  
       7A    -14.330747     8A    -10.332046     9A    -10.284277  
      10A    -10.275020    11A    -10.235026    12A    -10.233199  
      13A    -10.225760    14A    -10.198968    15A    -10.195449  
      16A    -10.195053    17A    -10.193433    18A    -10.193379  
      19A    -10.193031    20A    -10.186560    21A     -1.113093  
      22A     -1.031679    23A     -1.022888    24A     -1.015260  
      25A     -0.927380    26A     -0.912427    27A     -0.899017  
      28A     -0.855792    29A     -0.780408    30A     -0.766030  
      31A     -0.744301    32A     -0.731973    33A     -0.711914  
      34A     -0.649050    35A     -0.625820    36A     -0.608530  
      37A     -0.590866    38A     -0.580049    39A     -0.578140  
      40A     -0.548850    41A     -0.522280    42A     -0.514812  
      43A     -0.506190    44A     -0.498575    45A     -0.495009  
      46A     -0.490161    47A     -0.475168    48A     -0.469684  
      49A     -0.464175    50A     -0.458006    51A     -0.436822  
      52A     -0.434949    53A     -0.428670    54A     -0.423543  
      55A     -0.417385    56A     -0.412323    57A     -0.405621  
      58A     -0.399620    59A     -0.392679    60A     -0.378179  
      61A     -0.376864    62A     -0.367648    63A     -0.363168  
      64A     -0.347982    65A     -0.341916    66A     -0.336873  
      67A     -0.298832    68A     -0.284578    69A     -0.279206  
      70A     -0.262130    71A     -0.259419    72A     -0.254311  
      73A     -0.247819    74A     -0.239637  

    Virtual:                                                              

      75A     -0.018689    76A     -0.016360    77A     -0.006991  
      78A      0.007749    79A      0.025328    80A      0.040373  
      81A      0.048185    82A      0.071230    83A      0.080027  
      84A      0.085042    85A      0.093686    86A      0.102943  
      87A      0.110184    88A      0.120856    89A      0.125208  
      90A      0.132656    91A      0.140707    92A      0.143792  
      93A      0.153736    94A      0.154955    95A      0.161846  
      96A      0.167991    97A      0.187975    98A      0.196251  
      99A      0.204026   100A      0.214825   101A      0.223095  
     102A      0.232067   103A      0.238849   104A      0.260963  
     105A      0.268138   106A      0.270015   107A      0.287612  
     108A      0.299205   109A      0.304291   110A      0.316955  
     111A      0.323766   112A      0.331333   113A      0.346313  
     114A      0.362412   115A      0.379395   116A      0.392050  
     117A      0.403375   118A      0.414817   119A      0.422993  
     120A      0.427325   121A      0.439942   122A      0.445002  
     123A      0.453510   124A      0.456104   125A      0.466491  
     126A      0.475079   127A      0.481523   128A      0.486027  
     129A      0.493126   130A      0.500430   131A      0.505974  
     132A      0.511866   133A      0.523948   134A      0.533349  
     135A      0.537100   136A      0.555847   137A      0.559060  
     138A      0.570605   139A      0.579763   140A      0.586949  
     141A      0.588267   142A      0.604354   143A      0.608916  
     144A      0.624745   145A      0.629487   146A      0.633788  
     147A      0.639001   148A      0.646123   149A      0.651336  
     150A      0.655752   151A      0.658781   152A      0.661992  
     153A      0.666460   154A      0.667534   155A      0.674613  
     156A      0.682550   157A      0.687097   158A      0.688627  
     159A      0.692075   160A      0.696677   161A      0.703530  
     162A      0.710345   163A      0.725963   164A      0.738535  
     165A      0.744127   166A      0.749489   167A      0.755772  
     168A      0.758020   169A      0.773054   170A      0.782896  
     171A      0.792372   172A      0.811514   173A      0.815837  
     174A      0.833089   175A      0.841532   176A      0.855076  
     177A      0.883923   178A      0.887436   179A      0.905946  
     180A      0.909299   181A      0.914807   182A      0.927366  
     183A      0.939101   184A      0.943943   185A      0.961622  
     186A      0.976915   187A      0.987834   188A      1.016626  
     189A      1.027274   190A      1.040556   191A      1.070934  
     192A      1.072727   193A      1.089861   194A      1.102227  
     195A      1.107096   196A      1.127253   197A      1.139747  
     198A      1.153889   199A      1.167105   200A      1.179556  
     201A      1.203048   202A      1.206413   203A      1.217928  
     204A      1.226754   205A      1.237516   206A      1.252808  
     207A      1.262780   208A      1.274878   209A      1.284955  
     210A      1.299377   211A      1.300554   212A      1.320350  
     213A      1.322414   214A      1.333122   215A      1.346411  
     216A      1.362561   217A      1.376626   218A      1.380190  
     219A      1.386266   220A      1.437693   221A      1.447214  
     222A      1.462025   223A      1.478419   224A      1.515038  
     225A      1.523349   226A      1.538932   227A      1.552969  
     228A      1.576756   229A      1.600979   230A      1.605359  
     231A      1.629759   232A      1.640042   233A      1.654009  
     234A      1.656894   235A      1.671130   236A      1.676848  
     237A      1.690196   238A      1.702737   239A      1.721400  
     240A      1.725685   241A      1.734164   242A      1.743831  
     243A      1.748933   244A      1.753599   245A      1.759064  
     246A      1.763947   247A      1.770027   248A      1.780718  
     249A      1.791951   250A      1.793636   251A      1.799918  
     252A      1.810194   253A      1.819660   254A      1.828536  
     255A      1.840350   256A      1.856095   257A      1.873404  
     258A      1.874079   259A      1.886540   260A      1.897473  
     261A      1.904499   262A      1.912709   263A      1.928916  
     264A      1.930144   265A      1.937221   266A      1.954849  
     267A      1.961978   268A      1.971583   269A      1.984925  
     270A      1.993164   271A      2.002624   272A      2.006419  
     273A      2.023260   274A      2.031907   275A      2.041802  
     276A      2.064603   277A      2.083571   278A      2.091024  
     279A      2.105139   280A      2.115521   281A      2.120369  
     282A      2.132864   283A      2.150306   284A      2.163382  
     285A      2.167968   286A      2.176268   287A      2.200472  
     288A      2.206098   289A      2.208783   290A      2.218437  
     291A      2.238294   292A      2.282720   293A      2.297490  
     294A      2.307585   295A      2.312937   296A      2.330587  
     297A      2.336247   298A      2.343071   299A      2.355627  
     300A      2.361060   301A      2.371222   302A      2.389749  
     303A      2.412297   304A      2.430659   305A      2.444541  
     306A      2.465158   307A      2.479891   308A      2.526540  
     309A      2.533895   310A      2.566140   311A      2.572172  
     312A      2.584435   313A      2.617250   314A      2.624875  
     315A      2.640546   316A      2.645512   317A      2.649394  
     318A      2.673539   319A      2.690838   320A      2.703582  
     321A      2.725183   322A      2.732495   323A      2.745909  
     324A      2.756907   325A      2.758187   326A      2.769132  
     327A      2.803426   328A      2.812009   329A      2.819186  
     330A      2.845715   331A      2.857604   332A      2.876435  
     333A      2.877869   334A      2.891457   335A      2.898350  
     336A      2.908603   337A      2.920718   338A      2.944400  
     339A      2.954723   340A      2.987498   341A      2.995434  
     342A      3.025527   343A      3.036543   344A      3.042189  
     345A      3.096006   346A      3.144783   347A      3.152251  
     348A      3.165553   349A      3.178726   350A      3.192265  
     351A      3.198457   352A      3.217465   353A      3.218264  
     354A      3.259020   355A      3.298450   356A      3.310574  
     357A      3.416777   358A      3.479821   359A      3.550197  
     360A      3.565788   361A      3.638982   362A      3.650390  
     363A      3.664796   364A      3.684136   365A      3.775903  

    Final Occupation by Irrep:
              A 
    DOCC [    74 ]
    NA   [    74 ]
    NB   [    74 ]

  @DF-RKS Final Energy:  -970.20289317019456

   => Energetics <=

    Nuclear Repulsion Energy =           1642.1085750360862221
    One-Electron Energy =               -4584.7343304616088062
    Two-Electron Energy =                2079.3582946942628951
    DFT Exchange-Correlation Energy =    -106.8557856353103830
    Empirical Dispersion Energy =          -0.0796468036242129
    VV10 Nonlocal Energy =                  0.0000000000000000
    Total Energy =                       -970.2028931701943293

Computation Completed


Properties will be evaluated at   0.000000,   0.000000,   0.000000 [a0]

Properties computed using the SCF density matrix


 Multipole Moments:

 ------------------------------------------------------------------------------------
     Multipole            Electronic (a.u.)      Nuclear  (a.u.)        Total (a.u.)
 ------------------------------------------------------------------------------------

 L = 1.  Multiply by 2.5417464519 to convert [e a0] to [Debye]
 Dipole X            :         84.5650443          -83.3614890            1.2035553
 Dipole Y            :         17.2954006          -16.6995099            0.5958907
 Dipole Z            :        -14.7815534           14.7512022           -0.0303512
 Magnitude           :                                                    1.3433363

 ------------------------------------------------------------------------------------

*** tstop() called on choehoyun-ui-MacBookAir.local at Mon Aug 10 18:20:08 2026
Module time:
	user time   =     244.24 seconds =       4.07 minutes
	system time =       3.73 seconds =       0.06 minutes
	total time  =         39 seconds =       0.65 minutes
Total time:
	user time   =     244.24 seconds =       4.07 minutes
	system time =       3.73 seconds =       0.06 minutes
	total time  =         39 seconds =       0.65 minutes

    Psi4 stopped on: Monday, 10 August 2026 06:20PM
    Psi4 wall time for execution: 0:00:39.40

*** Psi4 exiting successfully. Buy a developer a beer!
