
    -----------------------------------------------------------------------
          Psi4: An Open-Source Ab Initio Electronic Structure Package
                               Psi4 1.11 release

                         Git: Rev {} zzzzzzz 


    D. G. A. Smith, L. A. Burns, A. C. Simmonett, R. M. Parrish,
    M. C. Schieber, R. Galvelis, P. Kraus, H. Kruse, R. Di Remigio,
    A. Alenaizan, A. M. James, S. Lehtola, J. P. Misiewicz, M. Scheurer,
    R. A. Shaw, J. B. Schriber, Y. Xie, Z. L. Glick, D. A. Sirianni,
    J. S. O'Brien, J. M. Waldrop, A. Kumar, E. G. Hohenstein,
    B. P. Pritchard, B. R. Brooks, H. F. Schaefer III, A. Yu. Sokolov,
    K. Patkowski, A. E. DePrince III, U. Bozkaya, R. A. King,
    F. A. Evangelista, J. M. Turney, T. D. Crawford, C. D. Sherrill,
    J. Chem. Phys. 152(18) 184108 (2020). https://doi.org/10.1063/5.0006002

                            Additional Code Authors
    E. T. Seidl, C. L. Janssen, E. F. Valeev, M. L. Leininger,
    J. F. Gonthier, R. M. Richard, H. R. McAlexander, M. Saitow, X. Wang,
    P. Verma, M. H. Lechner, A. Jiang, S. Behnle, A. G. Heide,
    M. F. Herbst, D. L. Poole, T. Győri, E. C. Mitchell, J. P. Pederson,
    and A. M. Wallace

             Previous Authors, Complete List of Code Contributors,
                       and Citations for Specific Modules
    https://github.com/psi4/psi4/blob/master/codemeta.json
    https://github.com/psi4/psi4/graphs/contributors
    https://psicode.org/psi4manual/master/introduction.html#citing-psifour

    -----------------------------------------------------------------------


    Psi4 started on: Monday, 10 August 2026 06:20PM

    Process ID: 74358
    Host:       choehoyun-ui-MacBookAir.local
    PSIDATADIR: /Users/hoyoun/micromamba/envs/psi4env/share/psi4
    Memory:     500.0 MiB
    Threads:    8
    Addons:     a̶d̶c̶c̶, a̶m̶b̶i̶t̶, b̶s̶e̶, c̶c̶t̶3̶, c̶f̶o̶u̶r̶, c̶h̶e̶m̶p̶s̶2̶, c̶p̶p̶e̶, d̶d̶x̶, dftd3,
                d̶f̶t̶d̶4̶, dkh, ecpint, einsums, f̶o̶r̶t̶e̶, gauxc, g̶c̶p̶, g̶d̶m̶a̶,
                g̶e̶o̶m̶e̶t̶r̶i̶c̶, g̶p̶u̶_̶d̶f̶c̶c̶, i̶n̶t̶e̶g̶r̶a̶t̶o̶r̶x̶x̶, i̶p̶i̶,
                l̶i̶b̶e̶f̶p̶, m̶d̶i̶, m̶p̶2̶d̶, m̶r̶c̶c̶, ooo, o̶p̶e̶n̶f̶e̶r̶m̶i̶o̶n̶p̶s̶i̶4̶,
                pcmsolver, p̶s̶i̶4̶f̶o̶c̶k̶c̶i̶, p̶s̶i̶x̶a̶s̶, p̶y̶e̶i̶n̶s̶u̶m̶s̶, r̶e̶s̶p̶,
                s̶i̶m̶i̶n̶t̶, s̶n̶s̶m̶p̶2̶, v̶2̶r̶d̶m̶_̶c̶a̶s̶s̶c̶f̶

  ==> Input File <==

--------------------------------------------------------------------------
memory 3 GB
molecule mol {
0 1
O 3.16943244803167 -1.40921622315206 0.24643243364532
C 4.20043245310603 -0.98021622104062 -0.21556756862854
O 5.36143245882021 -1.66921622443173 -0.21956756864823
H 5.16943245787523 -2.51321622858571 0.21543243349274
C 4.37743245397718 0.37078378560870 -0.87856757189168
H 4.67143245542418 0.20978378481629 -1.91456757699065
H 5.18843245796874 0.89078378816802 -0.37456756941111
N 3.18143244809073 1.15978378949198 -0.80756757154224
H 2.38043244414839 0.86078378802037 -1.35756757424921
C 2.86843244655022 1.72978379229739 0.39343243436882
O 3.66943245049256 1.87978379303566 1.30543243885748
C 1.40043243932505 2.11278379418243 0.51143243494959
H 1.03943243754829 2.56878379642676 -0.40856756957845
H 1.28443243875412 2.80278379757846 1.34143243903466
N 0.61743243547130 0.91878378830583 0.76643243620464
H 0.51743243497912 0.54278378645525 1.70043244080158
C 0.31243243397015 0.05778378406818 -0.21856756864331
O 0.53243243505295 0.27478378513621 -1.41556757453468
C -0.31056756909611 -1.25321622238427 0.25043243366500
N -0.62756757065631 -1.20121622212833 1.67543244067854
H -0.60756757055788 -2.13121622670559 2.07143244262756
H -1.56956757529263 -0.84521622037618 1.80243244130360
H 0.48843243483639 -1.98521622598701 0.11243243298580
C -1.48856757489397 -1.62421622421024 -0.66856757085811
H -1.14056757318119 -1.57021622394447 -1.69956757593246
H -1.77956757632621 -2.65421622927968 -0.45656756981469
C -2.65856758065245 -0.70921621970682 -0.45256756979501
C -3.69656758576125 -1.06921622147866 0.41343243446725
H -3.68256758569235 -2.04921622630200 0.87643243674604
C -4.75456759096849 -0.19821621719179 0.66943243572723
H -5.55056759488623 -0.49821621866832 1.33843243901989
C -4.78756759113091 1.05278378896535 0.05943243272494
H -5.60756759516677 1.73078379230232 0.25243243367485
C -3.76256758608609 1.42178379078149 -0.81156757156193
H -3.78756758620913 2.38778379553592 -1.29656757394898
C -2.70656758088869 0.55078378649462 -1.06456757280713
H -1.91156757697588 0.83678378790225 -1.74156757613918
units angstrom
no_reorient
no_com
}
set basis def2-SVP
set scf_type df
set freeze_core true
set e_convergence 8
energy('b3lyp-d3bj')
--------------------------------------------------------------------------

  Memory set to   2.794 GiB by Python driver.

Scratch directory: /Users/hoyoun/Documents/Yonsei_AX_Camp/(진짜_이게_최종)/calibration/dft_work/_scratch/691/
   => Libint2 <=

    Primary   basis highest AM E, G, H:  7, 6, 3
    Auxiliary basis highest AM E, G, H:  7, 7, 4
    Onebody   basis highest AM E, G, H:  -, -, -
    Solid Harmonics ordering:            Gaussian

*** tstart() called on choehoyun-ui-MacBookAir.local
*** at Mon Aug 10 18:20:10 2026

   => Loading Basis Set <=

    Name: DEF2-SVP
    Role: ORBITAL
    Keyword: BASIS
    atoms 1, 3, 11, 18                                           entry O          line   130 file /Users/hoyoun/micromamba/envs/psi4env/share/psi4/basis/def2-svp.gbs 
    atoms 2, 5, 10, 12, 17, 19, 24, 27-28, 30, 32, 34, 36        entry C          line    90 file /Users/hoyoun/micromamba/envs/psi4env/share/psi4/basis/def2-svp.gbs 
    atoms 4, 6-7, 9, 13-14, 16, 21-23, 25-26, 29, 31, 33, 35, 37 entry H          line    15 file /Users/hoyoun/micromamba/envs/psi4env/share/psi4/basis/def2-svp.gbs 
    atoms 8, 15, 20                                              entry N          line   110 file /Users/hoyoun/micromamba/envs/psi4env/share/psi4/basis/def2-svp.gbs 

   => B3LYP-D3(BJ): Empirical Dispersion <=

    Grimme's -D3 (BJ-damping) Dispersion Correction
    Grimme S.; Ehrlich S.; Goerigk L. (2011), J. Comput. Chem., 32: 1456

        s6 =       1.000000
        s8 =       1.988900
        a1 =       0.398100
        a2 =       4.421100


         ---------------------------------------------------------
                                   SCF
               by Justin Turney, Rob Parrish, Andy Simmonett
                          and Daniel G. A. Smith
                              RKS Reference
                        8 Threads,   2861 MiB Core
         ---------------------------------------------------------

  ==> Geometry <==

    Molecular point group: c1
    Full point group: C1

    Geometry (in Angstrom), charge = 0, multiplicity = 1:

       Center              X                  Y                   Z               Mass       
    ------------   -----------------  -----------------  -----------------  -----------------
         O            3.169432448032    -1.409216223152     0.246432433645    15.994914619570
         C            4.200432453106    -0.980216221041    -0.215567568629    12.000000000000
         O            5.361432458820    -1.669216224432    -0.219567568648    15.994914619570
         H            5.169432457875    -2.513216228586     0.215432433493     1.007825032230
         C            4.377432453977     0.370783785609    -0.878567571892    12.000000000000
         H            4.671432455424     0.209783784816    -1.914567576991     1.007825032230
         H            5.188432457969     0.890783788168    -0.374567569411     1.007825032230
         N            3.181432448091     1.159783789492    -0.807567571542    14.003074004430
         H            2.380432444148     0.860783788020    -1.357567574249     1.007825032230
         C            2.868432446550     1.729783792297     0.393432434369    12.000000000000
         O            3.669432450493     1.879783793036     1.305432438857    15.994914619570
         C            1.400432439325     2.112783794182     0.511432434950    12.000000000000
         H            1.039432437548     2.568783796427    -0.408567569578     1.007825032230
         H            1.284432438754     2.802783797578     1.341432439035     1.007825032230
         N            0.617432435471     0.918783788306     0.766432436205    14.003074004430
         H            0.517432434979     0.542783786455     1.700432440802     1.007825032230
         C            0.312432433970     0.057783784068    -0.218567568643    12.000000000000
         O            0.532432435053     0.274783785136    -1.415567574535    15.994914619570
         C           -0.310567569096    -1.253216222384     0.250432433665    12.000000000000
         N           -0.627567570656    -1.201216222128     1.675432440679    14.003074004430
         H           -0.607567570558    -2.131216226706     2.071432442628     1.007825032230
         H           -1.569567575293    -0.845216220376     1.802432441304     1.007825032230
         H            0.488432434836    -1.985216225987     0.112432432986     1.007825032230
         C           -1.488567574894    -1.624216224210    -0.668567570858    12.000000000000
         H           -1.140567573181    -1.570216223944    -1.699567575932     1.007825032230
         H           -1.779567576326    -2.654216229280    -0.456567569815     1.007825032230
         C           -2.658567580652    -0.709216219707    -0.452567569795    12.000000000000
         C           -3.696567585761    -1.069216221479     0.413432434467    12.000000000000
         H           -3.682567585692    -2.049216226302     0.876432436746     1.007825032230
         C           -4.754567590968    -0.198216217192     0.669432435727    12.000000000000
         H           -5.550567594886    -0.498216218668     1.338432439020     1.007825032230
         C           -4.787567591131     1.052783788965     0.059432432725    12.000000000000
         H           -5.607567595167     1.730783792302     0.252432433675     1.007825032230
         C           -3.762567586086     1.421783790781    -0.811567571562    12.000000000000
         H           -3.787567586209     2.387783795536    -1.296567573949     1.007825032230
         C           -2.706567580889     0.550783786495    -1.064567572807    12.000000000000
         H           -1.911567576976     0.836783787902    -1.741567576139     1.007825032230

  Running in c1 symmetry.

  Rotational constants: A =      0.02575  B =      0.00557  C =      0.00514 [cm^-1]
  Rotational constants: A =    772.07411  B =    167.06441  C =    154.04178 [MHz]
  Nuclear repulsion = 1590.988677952655280

  Charge       = 0
  Multiplicity = 1
  Electrons    = 148
  Nalpha       = 74
  Nbeta        = 74

  ==> Algorithm <==

  SCF Algorithm Type is DF.
  DIIS enabled.
  MOM disabled.
  Fractional occupation disabled.
  Guess Type is SAD.
  Energy threshold   = 1.00e-08
  Density threshold  = 1.00e-06
  Integral threshold = 1.00e-12

  ==> Primary Basis <==

  Basis Set: DEF2-SVP
    Blend: DEF2-SVP
    Number of shells: 171
    Number of basis functions: 365
    Number of Cartesian functions: 385
    Spherical Harmonics?: true
    Max angular momentum: 2

  ==> DFT Potential <==

   => LibXC <=

    Version 7.1.2
    S. Lehtola, C. Steigemann, M. J. T. Oliveira, and M. A. L. Marques,  SoftwareX 7, 1–5 (2018) (10.1016/j.softx.2017.11.002)

   => Composite Functional: B3LYP-D3BJ2B <= 

    B3LYP-d3bj2b Hyb-GGA Exchange-Correlation Functional

    P. J. Stephens, F. J. Devlin, C. F. Chabalowski, and M. J. Frisch,  J. Phys. Chem. 98, 11623 (1994) (10.1021/j100096a001)

    Deriv               =              1
    GGA                 =           TRUE
    Meta                =          FALSE

    Exchange Hybrid     =           TRUE
    MP2 Hybrid          =          FALSE

   => Exchange Functionals <=

    0.0800   Slater exchange
    0.7200         Becke 88

   => Exact (HF) Exchange <=

    0.2000               HF 

   => Correlation Functionals <=

    0.1900   Vosko, Wilk & Nusair (VWN5_RPA)
    0.8100   Lee, Yang & Parr

   => LibXC Density Thresholds  <==

    XC_HYB_GGA_XC_B3LYP:  1.00E-15 

   => Molecular Quadrature <=

    Radial Scheme          =       TREUTLER
    Pruning Scheme         =           NONE
    Nuclear Scheme         =       TREUTLER

    Blocking Scheme        =         OCTREE
    BS radius alpha        =              1
    Pruning alpha          =              1
    Radial Points          =             75
    Spherical Points       =            302
    Total Points           =         759416
    Total Blocks           =           5423
    Max Points             =            256
    Max Functions          =            264
    Weights Tolerance      =       1.00E-15

   => Loading Basis Set <=

    Name: (DEF2-SVP AUX)
    Role: JKFIT
    Keyword: DF_BASIS_SCF
    atoms 1, 3, 11, 18                                           entry O          line   318 file /Users/hoyoun/micromamba/envs/psi4env/share/psi4/basis/def2-universal-jkfit.gbs 
    atoms 2, 5, 10, 12, 17, 19, 24, 27-28, 30, 32, 34, 36        entry C          line   198 file /Users/hoyoun/micromamba/envs/psi4env/share/psi4/basis/def2-universal-jkfit.gbs 
    atoms 4, 6-7, 9, 13-14, 16, 21-23, 25-26, 29, 31, 33, 35, 37 entry H          line    18 file /Users/hoyoun/micromamba/envs/psi4env/share/psi4/basis/def2-universal-jkfit.gbs 
    atoms 8, 15, 20                                              entry N          line   258 file /Users/hoyoun/micromamba/envs/psi4env/share/psi4/basis/def2-universal-jkfit.gbs 

  ==> Integral Setup <==

  DFHelper Memory: AOs need 1.361 GiB; user supplied 1.361 GiB. 
  SCF_SUBTYPE=INCORE selected. In-core MEM_DF algorithm will be used.
  Using in-core AOs.

  ==> MemDFJK: Density-Fitted J/K Matrices <==

    J tasked:                   Yes
    K tasked:                   Yes
    wK tasked:                   No
    OpenMP threads:               8
    Memory [MiB]:              1393
    Algorithm:                 Core
    Schwarz Cutoff:           1E-12
    Mask sparsity (%):      27.9677
    Fitting Condition:        1E-10

   => Auxiliary Basis Set <=

  Basis Set: (DEF2-SVP AUX)
    Blend: DEF2-UNIVERSAL-JKFIT
    Number of shells: 602
    Number of basis functions: 1820
    Number of Cartesian functions: 2148
    Spherical Harmonics?: true
    Max angular momentum: 4

  Cached 20.0% of DFT collocation blocks in 0.727 [GiB].

  Minimum eigenvalue in the overlap matrix is 2.7245998799E-04.
  Reciprocal condition number of the overlap matrix is 3.9436723408E-05.
    Using symmetric orthogonalization.

  ==> Pre-Iterations <==

  SCF Guess: Superposition of Atomic Densities via on-the-fly atomic UHF (no occupation information).

   -------------------------
    Irrep   Nso     Nmo    
   -------------------------
     A        365     365 
   -------------------------
    Total     365     365
   -------------------------

  ==> Iterations <==

                           Total Energy        Delta E     RMS |[F,P]|

   @DF-RKS iter SAD:  -969.44642815885857   -9.69446e+02   0.00000e+00 
   @DF-RKS iter   1:  -969.09074708212586    3.55681e-01   4.16311e-03 ADIIS/DIIS
   @DF-RKS iter   2:  -968.56052641056203    5.30221e-01   5.25794e-03 ADIIS/DIIS
   @DF-RKS iter   3:  -970.14099463837647   -1.58047e+00   1.04837e-03 ADIIS/DIIS
   @DF-RKS iter   4:  -970.19565595488666   -5.46613e-02   3.55939e-04 ADIIS/DIIS
   @DF-RKS iter   5:  -970.20168520278708   -6.02925e-03   1.08995e-04 ADIIS/DIIS
   @DF-RKS iter   6:  -970.20232156200723   -6.36359e-04   2.94053e-05 DIIS
   @DF-RKS iter   7:  -970.20236631895580   -4.47569e-05   9.23552e-06 DIIS
   @DF-RKS iter   8:  -970.20237044961823   -4.13066e-06   3.82647e-06 DIIS
   @DF-RKS iter   9:  -970.20237120117986   -7.51562e-07   1.02931e-06 DIIS
   @DF-RKS iter  10:  -970.20237125684821   -5.56684e-08   3.07694e-07 DIIS
   @DF-RKS iter  11:  -970.20237126198640   -5.13819e-09   1.09336e-07 DIIS
  Energy and wave function converged.


  ==> Post-Iterations <==

   Electrons on quadrature grid:
      Ntotal   =  148.0000152906 ; deviation = 1.529e-05 

    Orbital Energies [Eh]
    ---------------------

    Doubly Occupied:                                                      

       1A    -19.191176     2A    -19.137412     3A    -19.103575  
       4A    -19.097252     5A    -14.353367     6A    -14.340092  
       7A    -14.323494     8A    -10.325646     9A    -10.281874  
      10A    -10.277679    11A    -10.233767    12A    -10.225277  
      13A    -10.224726    14A    -10.196471    15A    -10.192983  
      16A    -10.191972    17A    -10.190695    18A    -10.190311  
      19A    -10.189442    20A    -10.185619    21A     -1.107179  
      22A     -1.031946    23A     -1.020848    24A     -1.014863  
      25A     -0.924852    26A     -0.914026    27A     -0.893328  
      28A     -0.853178    29A     -0.777096    30A     -0.761644  
      31A     -0.741914    32A     -0.727303    33A     -0.707848  
      34A     -0.645444    35A     -0.624603    36A     -0.605850  
      37A     -0.586096    38A     -0.574641    39A     -0.570591  
      40A     -0.539367    41A     -0.528245    42A     -0.511653  
      43A     -0.510874    44A     -0.495942    45A     -0.489938  
      46A     -0.483811    47A     -0.471163    48A     -0.469382  
      49A     -0.461297    50A     -0.455042    51A     -0.435744  
      52A     -0.429900    53A     -0.426304    54A     -0.417076  
      55A     -0.414125    56A     -0.409698    57A     -0.401909  
      58A     -0.399819    59A     -0.384829    60A     -0.378374  
      61A     -0.373952    62A     -0.368451    63A     -0.364307  
      64A     -0.343095    65A     -0.335933    66A     -0.334103  
      67A     -0.296293    68A     -0.284542    69A     -0.277484  
      70A     -0.262007    71A     -0.259410    72A     -0.255911  
      73A     -0.244677    74A     -0.241194  

    Virtual:                                                              

      75A     -0.015657    76A     -0.012686    77A     -0.001273  
      78A      0.006277    79A      0.027268    80A      0.050031  
      81A      0.051836    82A      0.070450    83A      0.079124  
      84A      0.090140    85A      0.096072    86A      0.100279  
      87A      0.110573    88A      0.122318    89A      0.128714  
      90A      0.131446    91A      0.134454    92A      0.147751  
      93A      0.152757    94A      0.156201    95A      0.160228  
      96A      0.172189    97A      0.177018    98A      0.195427  
      99A      0.201515   100A      0.209981   101A      0.227898  
     102A      0.232501   103A      0.236102   104A      0.261812  
     105A      0.273122   106A      0.283686   107A      0.291351  
     108A      0.296477   109A      0.307626   110A      0.309765  
     111A      0.323854   112A      0.330345   113A      0.348732  
     114A      0.367640   115A      0.375668   116A      0.399108  
     117A      0.402396   118A      0.405806   119A      0.423989  
     120A      0.430802   121A      0.441402   122A      0.444856  
     123A      0.455049   124A      0.458912   125A      0.469769  
     126A      0.477026   127A      0.486902   128A      0.493851  
     129A      0.497622   130A      0.501089   131A      0.502641  
     132A      0.514357   133A      0.516624   134A      0.528046  
     135A      0.533085   136A      0.540791   137A      0.553890  
     138A      0.561217   139A      0.571943   140A      0.573809  
     141A      0.588744   142A      0.598477   143A      0.604356  
     144A      0.619801   145A      0.625724   146A      0.635259  
     147A      0.637081   148A      0.646799   149A      0.647209  
     150A      0.649532   151A      0.653591   152A      0.655088  
     153A      0.660494   154A      0.663618   155A      0.673314  
     156A      0.674570   157A      0.680337   158A      0.682008  
     159A      0.686665   160A      0.691820   161A      0.705684  
     162A      0.712862   163A      0.727756   164A      0.735894  
     165A      0.736751   166A      0.743553   167A      0.747354  
     168A      0.763029   169A      0.775359   170A      0.785460  
     171A      0.787102   172A      0.801543   173A      0.806908  
     174A      0.811060   175A      0.827445   176A      0.832924  
     177A      0.877109   178A      0.885085   179A      0.897611  
     180A      0.915130   181A      0.923531   182A      0.934795  
     183A      0.943136   184A      0.956326   185A      0.965357  
     186A      0.970057   187A      0.978367   188A      1.002400  
     189A      1.027682   190A      1.040807   191A      1.050626  
     192A      1.066393   193A      1.074665   194A      1.089583  
     195A      1.094458   196A      1.104504   197A      1.147284  
     198A      1.165360   199A      1.173703   200A      1.188041  
     201A      1.200919   202A      1.202480   203A      1.232983  
     204A      1.236888   205A      1.247517   206A      1.249524  
     207A      1.257697   208A      1.270468   209A      1.283994  
     210A      1.288640   211A      1.300069   212A      1.305995  
     213A      1.319446   214A      1.332137   215A      1.353685  
     216A      1.358303   217A      1.371363   218A      1.388605  
     219A      1.402800   220A      1.405854   221A      1.429084  
     222A      1.459076   223A      1.491781   224A      1.497303  
     225A      1.506895   226A      1.530651   227A      1.539793  
     228A      1.570080   229A      1.582244   230A      1.608123  
     231A      1.629147   232A      1.638621   233A      1.652039  
     234A      1.662880   235A      1.682072   236A      1.689577  
     237A      1.703121   238A      1.719221   239A      1.726074  
     240A      1.731781   241A      1.734468   242A      1.745305  
     243A      1.746207   244A      1.753422   245A      1.758783  
     246A      1.766755   247A      1.770010   248A      1.781094  
     249A      1.791049   250A      1.798546   251A      1.801276  
     252A      1.818683   253A      1.829251   254A      1.837978  
     255A      1.847513   256A      1.861583   257A      1.864460  
     258A      1.883677   259A      1.888458   260A      1.897243  
     261A      1.910508   262A      1.914378   263A      1.924462  
     264A      1.936178   265A      1.939867   266A      1.952225  
     267A      1.959122   268A      1.963341   269A      1.983022  
     270A      1.992464   271A      2.001889   272A      2.003926  
     273A      2.006822   274A      2.027197   275A      2.035691  
     276A      2.046571   277A      2.060840   278A      2.086840  
     279A      2.102751   280A      2.108899   281A      2.119350  
     282A      2.123267   283A      2.125152   284A      2.144563  
     285A      2.148802   286A      2.163546   287A      2.174939  
     288A      2.197974   289A      2.217396   290A      2.226068  
     291A      2.240440   292A      2.283901   293A      2.295111  
     294A      2.310646   295A      2.318368   296A      2.329870  
     297A      2.340996   298A      2.343907   299A      2.355843  
     300A      2.364874   301A      2.375494   302A      2.383644  
     303A      2.406073   304A      2.421036   305A      2.445856  
     306A      2.471395   307A      2.480970   308A      2.492627  
     309A      2.515565   310A      2.579743   311A      2.587751  
     312A      2.597062   313A      2.627044   314A      2.634440  
     315A      2.639627   316A      2.646313   317A      2.667987  
     318A      2.687956   319A      2.704177   320A      2.707810  
     321A      2.736032   322A      2.740120   323A      2.749931  
     324A      2.752043   325A      2.765092   326A      2.788926  
     327A      2.804712   328A      2.805571   329A      2.825539  
     330A      2.844998   331A      2.860534   332A      2.879271  
     333A      2.884498   334A      2.889009   335A      2.903199  
     336A      2.906208   337A      2.917401   338A      2.959518  
     339A      2.965584   340A      3.002393   341A      3.006690  
     342A      3.036073   343A      3.048312   344A      3.075758  
     345A      3.094818   346A      3.142297   347A      3.158250  
     348A      3.165110   349A      3.174130   350A      3.184096  
     351A      3.199061   352A      3.210935   353A      3.221532  
     354A      3.259353   355A      3.286444   356A      3.315963  
     357A      3.414132   358A      3.498824   359A      3.538236  
     360A      3.551321   361A      3.642587   362A      3.644526  
     363A      3.660844   364A      3.688221   365A      3.767109  

    Final Occupation by Irrep:
              A 
    DOCC [    74 ]
    NA   [    74 ]
    NB   [    74 ]

  @DF-RKS Final Energy:  -970.20237126198640

   => Energetics <=

    Nuclear Repulsion Energy =           1590.9886779526552800
    One-Electron Energy =               -4482.8779455421681632
    Two-Electron Energy =                2028.6178508711489030
    DFT Exchange-Correlation Energy =    -106.8542501290265250
    Empirical Dispersion Energy =          -0.0767044145957197
    VV10 Nonlocal Energy =                  0.0000000000000000
    Total Energy =                       -970.2023712619864000

Computation Completed


Properties will be evaluated at   0.000000,   0.000000,   0.000000 [a0]

Properties computed using the SCF density matrix


 Multipole Moments:

 ------------------------------------------------------------------------------------
     Multipole            Electronic (a.u.)      Nuclear  (a.u.)        Total (a.u.)
 ------------------------------------------------------------------------------------

 L = 1.  Multiply by 2.5417464519 to convert [e a0] to [Debye]
 Dipole X            :       -101.0175510          100.3917009           -0.6258501
 Dipole Y            :        -12.5681966           11.5424472           -1.0257494
 Dipole Z            :          1.7043718           -1.5854802            0.1188915
 Magnitude           :                                                    1.2074707

 ------------------------------------------------------------------------------------

*** tstop() called on choehoyun-ui-MacBookAir.local at Mon Aug 10 18:20:49 2026
Module time:
	user time   =     216.79 seconds =       3.61 minutes
	system time =       4.31 seconds =       0.07 minutes
	total time  =         39 seconds =       0.65 minutes
Total time:
	user time   =     216.79 seconds =       3.61 minutes
	system time =       4.31 seconds =       0.07 minutes
	total time  =         39 seconds =       0.65 minutes

    Psi4 stopped on: Monday, 10 August 2026 06:20PM
    Psi4 wall time for execution: 0:00:39.32

*** Psi4 exiting successfully. Buy a developer a beer!
