
    -----------------------------------------------------------------------
          Psi4: An Open-Source Ab Initio Electronic Structure Package
                               Psi4 1.11 release

                         Git: Rev {} zzzzzzz 


    D. G. A. Smith, L. A. Burns, A. C. Simmonett, R. M. Parrish,
    M. C. Schieber, R. Galvelis, P. Kraus, H. Kruse, R. Di Remigio,
    A. Alenaizan, A. M. James, S. Lehtola, J. P. Misiewicz, M. Scheurer,
    R. A. Shaw, J. B. Schriber, Y. Xie, Z. L. Glick, D. A. Sirianni,
    J. S. O'Brien, J. M. Waldrop, A. Kumar, E. G. Hohenstein,
    B. P. Pritchard, B. R. Brooks, H. F. Schaefer III, A. Yu. Sokolov,
    K. Patkowski, A. E. DePrince III, U. Bozkaya, R. A. King,
    F. A. Evangelista, J. M. Turney, T. D. Crawford, C. D. Sherrill,
    J. Chem. Phys. 152(18) 184108 (2020). https://doi.org/10.1063/5.0006002

                            Additional Code Authors
    E. T. Seidl, C. L. Janssen, E. F. Valeev, M. L. Leininger,
    J. F. Gonthier, R. M. Richard, H. R. McAlexander, M. Saitow, X. Wang,
    P. Verma, M. H. Lechner, A. Jiang, S. Behnle, A. G. Heide,
    M. F. Herbst, D. L. Poole, T. Győri, E. C. Mitchell, J. P. Pederson,
    and A. M. Wallace

             Previous Authors, Complete List of Code Contributors,
                       and Citations for Specific Modules
    https://github.com/psi4/psi4/blob/master/codemeta.json
    https://github.com/psi4/psi4/graphs/contributors
    https://psicode.org/psi4manual/master/introduction.html#citing-psifour

    -----------------------------------------------------------------------


    Psi4 started on: Sunday, 09 August 2026 12:54PM

    Process ID: 58860
    Host:       choehoyun-ui-MacBookAir.local
    PSIDATADIR: /Users/hoyoun/micromamba/envs/psi4env/share/psi4
    Memory:     500.0 MiB
    Threads:    8
    Addons:     a̶d̶c̶c̶, a̶m̶b̶i̶t̶, b̶s̶e̶, c̶c̶t̶3̶, c̶f̶o̶u̶r̶, c̶h̶e̶m̶p̶s̶2̶, c̶p̶p̶e̶, d̶d̶x̶, dftd3,
                d̶f̶t̶d̶4̶, dkh, ecpint, einsums, f̶o̶r̶t̶e̶, gauxc, g̶c̶p̶, g̶d̶m̶a̶,
                g̶e̶o̶m̶e̶t̶r̶i̶c̶, g̶p̶u̶_̶d̶f̶c̶c̶, i̶n̶t̶e̶g̶r̶a̶t̶o̶r̶x̶x̶, i̶p̶i̶,
                l̶i̶b̶e̶f̶p̶, m̶d̶i̶, m̶p̶2̶d̶, m̶r̶c̶c̶, ooo, o̶p̶e̶n̶f̶e̶r̶m̶i̶o̶n̶p̶s̶i̶4̶,
                pcmsolver, p̶s̶i̶4̶f̶o̶c̶k̶c̶i̶, p̶s̶i̶x̶a̶s̶, p̶y̶e̶i̶n̶s̶u̶m̶s̶, r̶e̶s̶p̶,
                s̶i̶m̶i̶n̶t̶, s̶n̶s̶m̶p̶2̶, v̶2̶r̶d̶m̶_̶c̶a̶s̶s̶c̶f̶

  ==> Input File <==

--------------------------------------------------------------------------
memory 3 GB
molecule mol {
0 1
S -2.19676693871484 0.90993065938851 -0.49248547651840
S -2.19676693871484 -0.90993065938851 0.49248547651840
S -0.90993065938851 -2.19676693871484 -0.49248547651840
S 0.90993065938851 -2.19676693871484 0.49248547651840
S 2.19676693871484 -0.90993065938851 -0.49248547651840
S 2.19676693871484 0.90993065938851 0.49248547651840
S 0.90993065938851 2.19676693871484 -0.49248547651840
S -0.90993065938851 2.19676693871484 0.49248547651840
units angstrom
no_reorient
no_com
}
set basis def2-TZVP
set scf_type df
set freeze_core true
set e_convergence 8
energy('b3lyp-d3bj')
--------------------------------------------------------------------------

  Memory set to   2.794 GiB by Python driver.

Scratch directory: /Users/hoyoun/Documents/Yonsei_AX_Camp/(진짜_이게_최종)/calibration/dft_work/_scratch/S8_1/
   => Libint2 <=

    Primary   basis highest AM E, G, H:  7, 6, 3
    Auxiliary basis highest AM E, G, H:  7, 7, 4
    Onebody   basis highest AM E, G, H:  -, -, -
    Solid Harmonics ordering:            Gaussian

*** tstart() called on choehoyun-ui-MacBookAir.local
*** at Sun Aug  9 12:54:21 2026

   => Loading Basis Set <=

    Name: DEF2-TZVP
    Role: ORBITAL
    Keyword: BASIS
    atoms 1-8 entry S          line   492 file /Users/hoyoun/micromamba/envs/psi4env/share/psi4/basis/def2-tzvp.gbs 

   => B3LYP-D3(BJ): Empirical Dispersion <=

    Grimme's -D3 (BJ-damping) Dispersion Correction
    Grimme S.; Ehrlich S.; Goerigk L. (2011), J. Comput. Chem., 32: 1456

        s6 =       1.000000
        s8 =       1.988900
        a1 =       0.398100
        a2 =       4.421100


         ---------------------------------------------------------
                                   SCF
               by Justin Turney, Rob Parrish, Andy Simmonett
                          and Daniel G. A. Smith
                              RKS Reference
                        8 Threads,   2861 MiB Core
         ---------------------------------------------------------

  ==> Geometry <==

    Molecular point group: d2
    Full point group: D4d

    Geometry (in Angstrom), charge = 0, multiplicity = 1:

       Center              X                  Y                   Z               Mass       
    ------------   -----------------  -----------------  -----------------  -----------------
         S           -2.196766938715     0.909930659389    -0.492485476518    31.972071174400
         S           -2.196766938715    -0.909930659389     0.492485476518    31.972071174400
         S           -0.909930659389    -2.196766938715    -0.492485476518    31.972071174400
         S            0.909930659389    -2.196766938715     0.492485476518    31.972071174400
         S            2.196766938715    -0.909930659389    -0.492485476518    31.972071174400
         S            2.196766938715     0.909930659389     0.492485476518    31.972071174400
         S            0.909930659389     2.196766938715    -0.492485476518    31.972071174400
         S           -0.909930659389     2.196766938715     0.492485476518    31.972071174400

  Running in d2 symmetry.

  Rotational constants: A =      0.02147  B =      0.02147  C =      0.01166 [cm^-1]
  Rotational constants: A =    643.72434  B =    643.72434  C =    349.47746 [MHz]
  Nuclear repulsion = 1200.659803361028708

  Charge       = 0
  Multiplicity = 1
  Electrons    = 128
  Nalpha       = 64
  Nbeta        = 64

  ==> Algorithm <==

  SCF Algorithm Type is DF.
  DIIS enabled.
  MOM disabled.
  Fractional occupation disabled.
  Guess Type is SAD.
  Energy threshold   = 1.00e-08
  Density threshold  = 1.00e-06
  Integral threshold = 1.00e-12

  ==> Primary Basis <==

  Basis Set: DEF2-TZVP
    Blend: DEF2-TZVP
    Number of shells: 104
    Number of basis functions: 296
    Number of Cartesian functions: 336
    Spherical Harmonics?: true
    Max angular momentum: 3

  ==> DFT Potential <==

   => LibXC <=

    Version 7.1.2
    S. Lehtola, C. Steigemann, M. J. T. Oliveira, and M. A. L. Marques,  SoftwareX 7, 1–5 (2018) (10.1016/j.softx.2017.11.002)

   => Composite Functional: B3LYP-D3BJ2B <= 

    B3LYP-d3bj2b Hyb-GGA Exchange-Correlation Functional

    P. J. Stephens, F. J. Devlin, C. F. Chabalowski, and M. J. Frisch,  J. Phys. Chem. 98, 11623 (1994) (10.1021/j100096a001)

    Deriv               =              1
    GGA                 =           TRUE
    Meta                =          FALSE

    Exchange Hybrid     =           TRUE
    MP2 Hybrid          =          FALSE

   => Exchange Functionals <=

    0.0800   Slater exchange
    0.7200         Becke 88

   => Exact (HF) Exchange <=

    0.2000               HF 

   => Correlation Functionals <=

    0.1900   Vosko, Wilk & Nusair (VWN5_RPA)
    0.8100   Lee, Yang & Parr

   => LibXC Density Thresholds  <==

    XC_HYB_GGA_XC_B3LYP:  1.00E-15 

   => Molecular Quadrature <=

    Radial Scheme          =       TREUTLER
    Pruning Scheme         =           NONE
    Nuclear Scheme         =       TREUTLER

    Blocking Scheme        =         OCTREE
    BS radius alpha        =              1
    Pruning alpha          =              1
    Radial Points          =             75
    Spherical Points       =            302
    Total Points           =         162976
    Total Blocks           =           1306
    Max Points             =            256
    Max Functions          =            245
    Weights Tolerance      =       1.00E-15

   => Loading Basis Set <=

    Name: (DEF2-TZVP AUX)
    Role: JKFIT
    Keyword: DF_BASIS_SCF
    atoms 1-8 entry S          line   903 file /Users/hoyoun/micromamba/envs/psi4env/share/psi4/basis/def2-universal-jkfit.gbs 

  ==> Integral Setup <==

  DFHelper Memory: AOs need 0.616 GiB; user supplied 1.288 GiB. 
  SCF_SUBTYPE=INCORE selected. In-core MEM_DF algorithm will be used.
  Using in-core AOs.

  ==> MemDFJK: Density-Fitted J/K Matrices <==

    J tasked:                   Yes
    K tasked:                   Yes
    wK tasked:                   No
    OpenMP threads:               8
    Memory [MiB]:              1318
    Algorithm:                 Core
    Schwarz Cutoff:           1E-12
    Mask sparsity (%):      12.4178
    Fitting Condition:        1E-10

   => Auxiliary Basis Set <=

  Basis Set: (DEF2-TZVP AUX)
    Blend: DEF2-UNIVERSAL-JKFIT
    Number of shells: 304
    Number of basis functions: 1024
    Number of Cartesian functions: 1240
    Spherical Harmonics?: true
    Max angular momentum: 4

  Cached 100.0% of DFT collocation blocks in 0.808 [GiB].

  Minimum eigenvalue in the overlap matrix is 3.7088508895E-03.
  Reciprocal condition number of the overlap matrix is 9.1666799931E-04.
    Using symmetric orthogonalization.

  ==> Pre-Iterations <==

  SCF Guess: Superposition of Atomic Densities via on-the-fly atomic UHF (no occupation information).

   -------------------------
    Irrep   Nso     Nmo    
   -------------------------
     A         74      74 
     B1        74      74 
     B2        74      74 
     B3        74      74 
   -------------------------
    Total     296     296
   -------------------------

  ==> Iterations <==

                           Total Energy        Delta E     RMS |[F,P]|

   @DF-RKS iter SAD: -3185.80107874204259   -3.18580e+03   0.00000e+00 
   @DF-RKS iter   1: -3185.75372541705292    4.73533e-02   5.81637e-03 ADIIS/DIIS
   @DF-RKS iter   2: -3185.82833669390129   -7.46113e-02   3.20849e-03 ADIIS/DIIS
   @DF-RKS iter   3: -3185.87369029606134   -4.53536e-02   6.00487e-04 ADIIS/DIIS
   @DF-RKS iter   4: -3185.87797735386494   -4.28706e-03   7.90638e-05 DIIS
   @DF-RKS iter   5: -3185.87805348126540   -7.61274e-05   2.14619e-05 DIIS
   @DF-RKS iter   6: -3185.87805921306017   -5.73179e-06   2.18910e-06 DIIS
   @DF-RKS iter   7: -3185.87805929032720   -7.72670e-08   3.66140e-07 DIIS
   @DF-RKS iter   8: -3185.87805929234310   -2.01590e-09   2.64182e-08 DIIS
  Energy and wave function converged.


  ==> Post-Iterations <==

   Electrons on quadrature grid:
      Ntotal   =  128.0000724127 ; deviation = 7.241e-05 

    Orbital Energies [Eh]
    ---------------------

    Doubly Occupied:                                                      

       1B1   -88.918672     1A    -88.918672     1B2   -88.918671  
       1B3   -88.918671     2B1   -88.918666     2B3   -88.918665  
       2B2   -88.918665     2A    -88.918656     3B3    -7.991875  
       3B2    -7.991875     3A     -7.991870     3B1    -7.991845  
       4A     -7.991845     4B2    -7.991791     4B3    -7.991791  
       4B1    -7.991757     5A     -5.955482     5B3    -5.955437  
       5B2    -5.955437     6A     -5.955321     5B1    -5.955321  
       6B2    -5.955190     6B3    -5.955190     6B1    -5.955133  
       7A     -5.951953     7B3    -5.951927     7B2    -5.951927  
       7B1    -5.951861     8A     -5.951861     8B2    -5.951806  
       8B3    -5.951806     8B1    -5.951783     9A     -5.945868  
       9B3    -5.945867     9B2    -5.945867     9B1    -5.945866  
      10B2    -5.945865    10B3    -5.945865    10B1    -5.945864  
      10A     -5.945864    11A     -0.874561    11B3    -0.843158  
      11B2    -0.843158    11B1    -0.760179    12A     -0.760179  
      12B2    -0.647350    12B3    -0.647350    12B1    -0.572350  
      13A     -0.471166    13B2    -0.447973    13B3    -0.447973  
      14A     -0.415971    13B1    -0.386613    15A     -0.386613  
      14B3    -0.381366    14B2    -0.381366    14B1    -0.345692  
      15B3    -0.290905    15B2    -0.290905    16A     -0.282248  
      15B1    -0.282248    16B2    -0.271811    16B3    -0.271811  
      17A     -0.268835  

    Virtual:                                                              

      17B2    -0.088613    17B3    -0.088613    16B1    -0.075227  
      18B2    -0.042068    18B3    -0.042068    17B1    -0.040761  
      18B1    -0.036825    18A     -0.036825    19A      0.123366  
      19B1     0.123366    20A      0.151233    21A      0.153314  
      19B3     0.154362    19B2     0.154362    20B3     0.169405  
      20B2     0.169405    20B1     0.184571    21B2     0.196334  
      21B3     0.196334    22A      0.202713    23A      0.213427  
      21B1     0.213427    24A      0.220061    22B1     0.220061  
      22B3     0.233255    22B2     0.233255    23B1     0.239176  
      23B2     0.241555    23B3     0.241555    24B3     0.267959  
      24B2     0.267959    25A      0.268315    25B3     0.275543  
      25B2     0.275543    26B2     0.295458    26B3     0.295458  
      24B1     0.316853    26A      0.325727    25B1     0.336409  
      27A      0.336409    26B1     0.385328    27B1     0.393849  
      27B2     0.395543    27B3     0.395543    28A      0.405080  
      29A      0.426819    28B1     0.426819    28B3     0.429543  
      28B2     0.429543    29B1     0.467356    29B3     0.492321  
      29B2     0.492321    30B2     0.503033    30B3     0.503033  
      30B1     0.523273    30A      0.523273    31A      0.546475  
      32A      0.551958    31B3     0.576803    31B2     0.576803  
      33A      0.578396    32B3     0.582339    32B2     0.582339  
      31B1     0.587127    34A      0.603132    32B1     0.603132  
      33B2     0.644989    33B3     0.644989    34B3     0.675072  
      34B2     0.675072    35A      0.717424    33B1     0.717424  
      35B3     0.838601    35B2     0.838601    34B1     0.847307  
      36A      0.886971    35B1     0.886971    36B1     0.927651  
      36B3     0.951615    36B2     0.951615    37A      1.277248  
      38A      1.302097    37B1     1.302097    37B3     1.307900  
      37B2     1.307900    38B2     1.320383    38B3     1.320383  
      39B3     1.369425    39B2     1.369425    39A      1.369642  
      38B1     1.369642    40A      1.375317    40B3     1.386833  
      40B2     1.386833    41A      1.398389    39B1     1.412666  
      40B1     1.415239    41B1     1.437836    41B2     1.442430  
      41B3     1.442430    42A      1.444320    42B1     1.444320  
      42B3     1.445076    42B2     1.445076    43B3     1.450814  
      43B2     1.450814    43A      1.457343    44A      1.480791  
      43B1     1.480791    45A      1.482311    44B2     1.486013  
      44B3     1.486013    45B3     1.489594    45B2     1.489594  
      44B1     1.516939    45B1     1.528400    46A      1.534224  
      46B1     1.534224    47A      1.542935    46B2     1.544831  
      46B3     1.544831    48A      1.556222    47B1     1.556222  
      47B3     1.563321    47B2     1.563321    48B2     1.568889  
      48B3     1.568889    48B1     1.570871    49B3     1.587377  
      49B2     1.587377    49B1     1.635305    50B1     1.648603  
      49A      1.648603    50A      1.658379    50B2     1.667770  
      50B3     1.667770    51B3     1.684257    51B2     1.684257  
      51A      1.694750    51B1     1.702696    52A      1.702696  
      52B1     1.709913    52B3     1.731039    52B2     1.731039  
      53A      1.753568    54A      1.756657    53B1     1.756657  
      53B2     1.756917    53B3     1.756917    55A      1.780208  
      54B1     1.783248    54B3     1.810401    54B2     1.810401  
      55B1     1.816199    55B2     1.827828    55B3     1.827828  
      56B2     1.834565    56B3     1.834565    56A      1.840905  
      57A      1.848620    56B1     1.848620    57B1     1.870072  
      58A      1.870072    57B3     1.891882    57B2     1.891882  
      58B2     1.923670    58B3     1.923670    58B1     2.014686  
      59A      2.063027    59B3     2.095145    59B2     2.095145  
      60A      2.138124    59B1     2.138124    60B3     2.169257  
      60B2     2.169257    61A      2.210738    60B1     2.323619  
      62A      2.335328    61B1     2.335328    61B3     2.362629  
      61B2     2.362629    62B2     2.371547    62B3     2.371547  
      63A      2.392744    62B1     2.392744    63B3     2.401992  
      63B2     2.401992    63B1     2.411931    64A      2.418313  
      64B3     2.427739    64B2     2.427739    65A      2.472059  
      64B1     2.949866    65B3     3.039350    65B2     3.039350  
      66A      3.089144    65B1     3.089144    66B3     3.171154  
      66B2     3.171154    66B1     3.273683    67B1     8.796082  
      67A      8.796082    68A      8.800947    67B2     8.807999  
      67B3     8.807999    68B1     8.808210    68B3     8.813935  
      68B2     8.813935    69A      8.894574    69B1     8.894574  
      70A      8.896670    69B3     8.918764    69B2     8.918764  
      70B3     8.952808    70B2     8.952808    71A      8.989038  
      70B1     9.102775    71B3     9.212999    71B2     9.212999  
      72A      9.329668    71B1     9.329668    72B2     9.357308  
      72B3     9.357308    72B1     9.378330    73A     17.745415  
      73B3    18.222268    73B2    18.222268    73B1    18.266218  
      74B2    18.548704    74B3    18.548704    74A     18.607623  
      74B1    18.607623  

    Final Occupation by Irrep:
              A    B1    B2    B3 
    DOCC [    17,   15,   16,   16 ]
    NA   [    17,   15,   16,   16 ]
    NB   [    17,   15,   16,   16 ]

  @DF-RKS Final Energy: -3185.87805929234310

   => Energetics <=

    Nuclear Repulsion Energy =           1200.6598033610287075
    One-Electron Energy =               -6795.8140833370935070
    Two-Electron Energy =                2575.0311325738030064
    DFT Exchange-Correlation Energy =    -165.7132827511855737
    Empirical Dispersion Energy =          -0.0416291388960477
    VV10 Nonlocal Energy =                  0.0000000000000000
    Total Energy =                      -3185.8780592923430959

Computation Completed


Properties will be evaluated at   0.000000,   0.000000,   0.000000 [a0]

Properties computed using the SCF density matrix


 Multipole Moments:

 ------------------------------------------------------------------------------------
     Multipole            Electronic (a.u.)      Nuclear  (a.u.)        Total (a.u.)
 ------------------------------------------------------------------------------------

 L = 1.  Multiply by 2.5417464519 to convert [e a0] to [Debye]
 Dipole X            :          0.0000000           -0.0000000           -0.0000000
 Dipole Y            :          0.0000000            0.0000000            0.0000000
 Dipole Z            :          0.0000000            0.0000000            0.0000000
 Magnitude           :                                                    0.0000000

 ------------------------------------------------------------------------------------

*** tstop() called on choehoyun-ui-MacBookAir.local at Sun Aug  9 12:54:27 2026
Module time:
	user time   =      30.66 seconds =       0.51 minutes
	system time =       0.75 seconds =       0.01 minutes
	total time  =          6 seconds =       0.10 minutes
Total time:
	user time   =      30.66 seconds =       0.51 minutes
	system time =       0.75 seconds =       0.01 minutes
	total time  =          6 seconds =       0.10 minutes

    Psi4 stopped on: Sunday, 09 August 2026 12:54PM
    Psi4 wall time for execution: 0:00:05.69

*** Psi4 exiting successfully. Buy a developer a beer!
