
    -----------------------------------------------------------------------
          Psi4: An Open-Source Ab Initio Electronic Structure Package
                               Psi4 1.11 release

                         Git: Rev {} zzzzzzz 


    D. G. A. Smith, L. A. Burns, A. C. Simmonett, R. M. Parrish,
    M. C. Schieber, R. Galvelis, P. Kraus, H. Kruse, R. Di Remigio,
    A. Alenaizan, A. M. James, S. Lehtola, J. P. Misiewicz, M. Scheurer,
    R. A. Shaw, J. B. Schriber, Y. Xie, Z. L. Glick, D. A. Sirianni,
    J. S. O'Brien, J. M. Waldrop, A. Kumar, E. G. Hohenstein,
    B. P. Pritchard, B. R. Brooks, H. F. Schaefer III, A. Yu. Sokolov,
    K. Patkowski, A. E. DePrince III, U. Bozkaya, R. A. King,
    F. A. Evangelista, J. M. Turney, T. D. Crawford, C. D. Sherrill,
    J. Chem. Phys. 152(18) 184108 (2020). https://doi.org/10.1063/5.0006002

                            Additional Code Authors
    E. T. Seidl, C. L. Janssen, E. F. Valeev, M. L. Leininger,
    J. F. Gonthier, R. M. Richard, H. R. McAlexander, M. Saitow, X. Wang,
    P. Verma, M. H. Lechner, A. Jiang, S. Behnle, A. G. Heide,
    M. F. Herbst, D. L. Poole, T. Győri, E. C. Mitchell, J. P. Pederson,
    and A. M. Wallace

             Previous Authors, Complete List of Code Contributors,
                       and Citations for Specific Modules
    https://github.com/psi4/psi4/blob/master/codemeta.json
    https://github.com/psi4/psi4/graphs/contributors
    https://psicode.org/psi4manual/master/introduction.html#citing-psifour

    -----------------------------------------------------------------------


    Psi4 started on: Sunday, 09 August 2026 03:41AM

    Process ID: 52755
    Host:       choehoyun-ui-MacBookAir.local
    PSIDATADIR: /Users/hoyoun/micromamba/envs/psi4env/share/psi4
    Memory:     500.0 MiB
    Threads:    8
    Addons:     a̶d̶c̶c̶, a̶m̶b̶i̶t̶, b̶s̶e̶, c̶c̶t̶3̶, c̶f̶o̶u̶r̶, c̶h̶e̶m̶p̶s̶2̶, c̶p̶p̶e̶, d̶d̶x̶, dftd3,
                d̶f̶t̶d̶4̶, dkh, ecpint, einsums, f̶o̶r̶t̶e̶, gauxc, g̶c̶p̶, g̶d̶m̶a̶,
                g̶e̶o̶m̶e̶t̶r̶i̶c̶, g̶p̶u̶_̶d̶f̶c̶c̶, i̶n̶t̶e̶g̶r̶a̶t̶o̶r̶x̶x̶, i̶p̶i̶,
                l̶i̶b̶e̶f̶p̶, m̶d̶i̶, m̶p̶2̶d̶, m̶r̶c̶c̶, ooo, o̶p̶e̶n̶f̶e̶r̶m̶i̶o̶n̶p̶s̶i̶4̶,
                pcmsolver, p̶s̶i̶4̶f̶o̶c̶k̶c̶i̶, p̶s̶i̶x̶a̶s̶, p̶y̶e̶i̶n̶s̶u̶m̶s̶, r̶e̶s̶p̶,
                s̶i̶m̶i̶n̶t̶, s̶n̶s̶m̶p̶2̶, v̶2̶r̶d̶m̶_̶c̶a̶s̶s̶c̶f̶

  ==> Input File <==

--------------------------------------------------------------------------
memory 3 GB
molecule mol {
0 1
C -3.97584986287201 -1.77408628152790 -0.62852711670009
C -3.87373946072861 -0.70893793366425 0.30607345492900
C -2.69699677528024 0.03451695898539 0.40147962208663
C -1.62865129193386 -0.29608540986124 -0.43719378090248
C -1.72109579465707 -1.33431949504163 -1.35953949551272
C -2.89932335972555 -2.08164951048277 -1.46040218606802
C -0.44644106390376 -1.48021290341651 -2.15087340876526
C 0.59314712781490 -0.58255237731816 -1.41828729959546
C -0.27708649938610 0.41948520002321 -0.50035171448601
C 0.33430369212468 0.54926481678346 0.86944312107680
C 0.62677687091797 1.75492449980767 1.39545221907650
C 0.33717168114670 3.03433368905205 0.72001768868314
C -0.18384158671166 2.93013609717080 -0.67863345435329
C -0.45267226493179 1.72199679881196 -1.21833888058425
N 1.52377845682025 -1.36235410553313 -0.60260131249284
C 0.92292118740675 -1.89572161516486 0.62585276116414
C 0.59802113238620 -0.74165627550049 1.60937909623103
O 0.50324178014475 4.11357269558226 1.29385790614074
O -0.50788997340760 4.05778379459828 -1.38559760393431
C 0.54404641671216 5.03746813493326 -1.55725733052691
C 2.87547481444015 -1.09724646750610 -0.71711557430364
O 3.57482188781123 -1.65888632681788 0.31697120093807
C 5.02038731307920 -1.50780666890177 0.24394516426292
C 5.60493689826035 -2.17309771494376 1.47808956391884
O -5.00794842551528 -0.51313044993852 1.06284755949946
C -4.99892006034565 0.57300023133304 1.99660590656715
O -5.12368726980007 -2.51338879637216 -0.72477959847580
O 3.39438775898765 -0.47684310561556 -1.63070817695246
H -5.76327534155919 -2.15790520197893 -0.08693492180023
H 1.06633999333784 1.84145118577699 2.38921438260979
H -0.87060643318696 1.67242707922477 -2.22300810840637
H 0.13027605063139 5.78927154175940 -2.23644522557612
H 0.81776657241519 5.49298572106668 -0.60061466208885
H 1.42558363308261 4.56846767210586 -2.02073017683485
H -0.29240989338886 -1.01708228846342 2.19411267004672
H 1.42485532853465 -0.59095018869782 2.31322573578832
H 1.59357433966699 -2.62392157273718 1.08170118075436
H 0.00107355192893 -2.40855213071044 0.33334721590378
H 1.19164916096367 -0.00535149051989 -2.12229326404623
H -0.57935025498185 -1.12855780789315 -3.18395528006904
H -0.08782027994020 -2.51591666764156 -2.20653264590550
H -2.60346041466418 0.85673695670354 1.10537728132010
H -3.00288038557756 -2.90112238400993 -2.16836635828369
H -4.21298961312417 0.42983323614441 2.75326037139078
H -5.98237090752993 0.56641635419385 2.47389000368292
H -4.83632335933277 1.52988041849387 1.47912839518860
H 5.26229959352258 -0.43882539773225 0.20100200019809
H 5.37853900467169 -1.97467980847033 -0.68209200302303
H 5.23292774138812 -1.69553752912577 2.39290990125835
H 6.69838519084871 -2.07824657290063 1.45690014882317
H 5.34894339343960 -3.23932860406287 1.50709502814807
units angstrom
no_reorient
no_com
}
set basis def2-TZVP
set scf_type disk_df
set freeze_core true
set e_convergence 8
energy('b3lyp-d3bj')
--------------------------------------------------------------------------

  Memory set to   2.794 GiB by Python driver.

Scratch directory: /Users/hoyoun/Documents/Yonsei_AX_Camp/(진짜_이게_최종)/calibration/dft_work/_scratch/i16p/
   => Libint2 <=

    Primary   basis highest AM E, G, H:  7, 6, 3
    Auxiliary basis highest AM E, G, H:  7, 7, 4
    Onebody   basis highest AM E, G, H:  -, -, -
    Solid Harmonics ordering:            Gaussian

*** tstart() called on choehoyun-ui-MacBookAir.local
*** at Sun Aug  9 03:41:50 2026

   => Loading Basis Set <=

    Name: DEF2-TZVP
    Role: ORBITAL
    Keyword: BASIS
    atoms 1-14, 16-17, 20-21, 23-24, 26 entry C          line   123 file /Users/hoyoun/micromamba/envs/psi4env/share/psi4/basis/def2-tzvp.gbs 
    atoms 15                            entry N          line   156 file /Users/hoyoun/micromamba/envs/psi4env/share/psi4/basis/def2-tzvp.gbs 
    atoms 18-19, 22, 25, 27-28          entry O          line   189 file /Users/hoyoun/micromamba/envs/psi4env/share/psi4/basis/def2-tzvp.gbs 
    atoms 29-51                         entry H          line    15 file /Users/hoyoun/micromamba/envs/psi4env/share/psi4/basis/def2-tzvp.gbs 

   => B3LYP-D3(BJ): Empirical Dispersion <=

    Grimme's -D3 (BJ-damping) Dispersion Correction
    Grimme S.; Ehrlich S.; Goerigk L. (2011), J. Comput. Chem., 32: 1456

        s6 =       1.000000
        s8 =       1.988900
        a1 =       0.398100
        a2 =       4.421100


         ---------------------------------------------------------
                                   SCF
               by Justin Turney, Rob Parrish, Andy Simmonett
                          and Daniel G. A. Smith
                              RKS Reference
                        8 Threads,   2861 MiB Core
         ---------------------------------------------------------

  ==> Geometry <==

    Molecular point group: c1
    Full point group: C1

    Geometry (in Angstrom), charge = 0, multiplicity = 1:

       Center              X                  Y                   Z               Mass       
    ------------   -----------------  -----------------  -----------------  -----------------
         C           -3.975849862872    -1.774086281528    -0.628527116700    12.000000000000
         C           -3.873739460729    -0.708937933664     0.306073454929    12.000000000000
         C           -2.696996775280     0.034516958985     0.401479622087    12.000000000000
         C           -1.628651291934    -0.296085409861    -0.437193780902    12.000000000000
         C           -1.721095794657    -1.334319495042    -1.359539495513    12.000000000000
         C           -2.899323359726    -2.081649510483    -1.460402186068    12.000000000000
         C           -0.446441063904    -1.480212903417    -2.150873408765    12.000000000000
         C            0.593147127815    -0.582552377318    -1.418287299595    12.000000000000
         C           -0.277086499386     0.419485200023    -0.500351714486    12.000000000000
         C            0.334303692125     0.549264816783     0.869443121077    12.000000000000
         C            0.626776870918     1.754924499808     1.395452219076    12.000000000000
         C            0.337171681147     3.034333689052     0.720017688683    12.000000000000
         C           -0.183841586712     2.930136097171    -0.678633454353    12.000000000000
         C           -0.452672264932     1.721996798812    -1.218338880584    12.000000000000
         N            1.523778456820    -1.362354105533    -0.602601312493    14.003074004430
         C            0.922921187407    -1.895721615165     0.625852761164    12.000000000000
         C            0.598021132386    -0.741656275500     1.609379096231    12.000000000000
         O            0.503241780145     4.113572695582     1.293857906141    15.994914619570
         O           -0.507889973408     4.057783794598    -1.385597603934    15.994914619570
         C            0.544046416712     5.037468134933    -1.557257330527    12.000000000000
         C            2.875474814440    -1.097246467506    -0.717115574304    12.000000000000
         O            3.574821887811    -1.658886326818     0.316971200938    15.994914619570
         C            5.020387313079    -1.507806668902     0.243945164263    12.000000000000
         C            5.604936898260    -2.173097714944     1.478089563919    12.000000000000
         O           -5.007948425515    -0.513130449939     1.062847559499    15.994914619570
         C           -4.998920060346     0.573000231333     1.996605906567    12.000000000000
         O           -5.123687269800    -2.513388796372    -0.724779598476    15.994914619570
         O            3.394387758988    -0.476843105616    -1.630708176952    15.994914619570
         H           -5.763275341559    -2.157905201979    -0.086934921800     1.007825032230
         H            1.066339993338     1.841451185777     2.389214382610     1.007825032230
         H           -0.870606433187     1.672427079225    -2.223008108406     1.007825032230
         H            0.130276050631     5.789271541759    -2.236445225576     1.007825032230
         H            0.817766572415     5.492985721067    -0.600614662089     1.007825032230
         H            1.425583633083     4.568467672106    -2.020730176835     1.007825032230
         H           -0.292409893389    -1.017082288463     2.194112670047     1.007825032230
         H            1.424855328535    -0.590950188698     2.313225735788     1.007825032230
         H            1.593574339667    -2.623921572737     1.081701180754     1.007825032230
         H            0.001073551929    -2.408552130710     0.333347215904     1.007825032230
         H            1.191649160964    -0.005351490520    -2.122293264046     1.007825032230
         H           -0.579350254982    -1.128557807893    -3.183955280069     1.007825032230
         H           -0.087820279940    -2.515916667642    -2.206532645905     1.007825032230
         H           -2.603460414664     0.856736956704     1.105377281320     1.007825032230
         H           -3.002880385578    -2.901122384010    -2.168366358284     1.007825032230
         H           -4.212989613124     0.429833236144     2.753260371391     1.007825032230
         H           -5.982370907530     0.566416354194     2.473890003683     1.007825032230
         H           -4.836323359333     1.529880418494     1.479128395189     1.007825032230
         H            5.262299593523    -0.438825397732     0.201002000198     1.007825032230
         H            5.378539004672    -1.974679808470    -0.682092003023     1.007825032230
         H            5.232927741388    -1.695537529126     2.392909901258     1.007825032230
         H            6.698385190849    -2.078246572901     1.456900148823     1.007825032230
         H            5.348943393440    -3.239328604063     1.507095028148     1.007825032230

  Running in c1 symmetry.

  Rotational constants: A =      0.00724  B =      0.00438  C =      0.00334 [cm^-1]
  Rotational constants: A =    217.13384  B =    131.17897  C =    100.09741 [MHz]
  Nuclear repulsion = 2734.127988952246142

  Charge       = 0
  Multiplicity = 1
  Electrons    = 204
  Nalpha       = 102
  Nbeta        = 102

  ==> Algorithm <==

  SCF Algorithm Type is DISK_DF.
  DIIS enabled.
  MOM disabled.
  Fractional occupation disabled.
  Guess Type is SAD.
  Energy threshold   = 1.00e-08
  Density threshold  = 1.00e-06
  Integral threshold = 1.00e-12

  ==> Primary Basis <==

  Basis Set: DEF2-TZVP
    Blend: DEF2-TZVP
    Number of shells: 400
    Number of basis functions: 1006
    Number of Cartesian functions: 1146
    Spherical Harmonics?: true
    Max angular momentum: 3

  ==> DFT Potential <==

   => LibXC <=

    Version 7.1.2
    S. Lehtola, C. Steigemann, M. J. T. Oliveira, and M. A. L. Marques,  SoftwareX 7, 1–5 (2018) (10.1016/j.softx.2017.11.002)

   => Composite Functional: B3LYP-D3BJ2B <= 

    B3LYP-d3bj2b Hyb-GGA Exchange-Correlation Functional

    P. J. Stephens, F. J. Devlin, C. F. Chabalowski, and M. J. Frisch,  J. Phys. Chem. 98, 11623 (1994) (10.1021/j100096a001)

    Deriv               =              1
    GGA                 =           TRUE
    Meta                =          FALSE

    Exchange Hybrid     =           TRUE
    MP2 Hybrid          =          FALSE

   => Exchange Functionals <=

    0.0800   Slater exchange
    0.7200         Becke 88

   => Exact (HF) Exchange <=

    0.2000               HF 

   => Correlation Functionals <=

    0.1900   Vosko, Wilk & Nusair (VWN5_RPA)
    0.8100   Lee, Yang & Parr

   => LibXC Density Thresholds  <==

    XC_HYB_GGA_XC_B3LYP:  1.00E-15 

   => Molecular Quadrature <=

    Radial Scheme          =       TREUTLER
    Pruning Scheme         =           NONE
    Nuclear Scheme         =       TREUTLER

    Blocking Scheme        =         OCTREE
    BS radius alpha        =              1
    Pruning alpha          =              1
    Radial Points          =             75
    Spherical Points       =            302
    Total Points           =        1039657
    Total Blocks           =           7217
    Max Points             =            256
    Max Functions          =            645
    Weights Tolerance      =       1.00E-15

   => Loading Basis Set <=

    Name: (DEF2-TZVP AUX)
    Role: JKFIT
    Keyword: DF_BASIS_SCF
    atoms 1-14, 16-17, 20-21, 23-24, 26 entry C          line   198 file /Users/hoyoun/micromamba/envs/psi4env/share/psi4/basis/def2-universal-jkfit.gbs 
    atoms 15                            entry N          line   258 file /Users/hoyoun/micromamba/envs/psi4env/share/psi4/basis/def2-universal-jkfit.gbs 
    atoms 18-19, 22, 25, 27-28          entry O          line   318 file /Users/hoyoun/micromamba/envs/psi4env/share/psi4/basis/def2-universal-jkfit.gbs 
    atoms 29-51                         entry H          line    18 file /Users/hoyoun/micromamba/envs/psi4env/share/psi4/basis/def2-universal-jkfit.gbs 

  ==> Integral Setup <==

  ==> DiskDFJK: Density-Fitted J/K Matrices <==

    J tasked:                  Yes
    K tasked:                  Yes
    wK tasked:                  No
    OpenMP threads:              8
    Integrals threads:           8
    Memory [MiB]:             1931
    Algorithm:                Disk
    Integral Cache:           NONE
    Schwarz Cutoff:          1E-12
    Fitting Condition:       1E-10

   => Auxiliary Basis Set <=

  Basis Set: (DEF2-TZVP AUX)
    Blend: DEF2-UNIVERSAL-JKFIT
    Number of shells: 838
    Number of basis functions: 2528
    Number of Cartesian functions: 2980
    Spherical Harmonics?: true
    Max angular momentum: 4

  Cached 1.8% of DFT collocation blocks in 0.211 [GiB].

  Minimum eigenvalue in the overlap matrix is 5.6202515011E-06.
  Reciprocal condition number of the overlap matrix is 4.4369553442E-07.
    Using symmetric orthogonalization.

  ==> Pre-Iterations <==

  SCF Guess: Superposition of Atomic Densities via on-the-fly atomic UHF (no occupation information).

   -------------------------
    Irrep   Nso     Nmo    
   -------------------------
     A       1006    1006 
   -------------------------
    Total    1006    1006
   -------------------------

  ==> Iterations <==

                           Total Energy        Delta E     RMS |[F,P]|

   @DF-RKS iter SAD: -1319.96923067590433   -1.31997e+03   0.00000e+00 
   @DF-RKS iter   1: -1319.01793228804354    9.51298e-01   1.92104e-03 ADIIS/DIIS
   @DF-RKS iter   2: -1317.90131346926000    1.11662e+00   2.40146e-03 ADIIS/DIIS
   @DF-RKS iter   3: -1320.49214458091660   -2.59083e+00   7.38764e-04 ADIIS/DIIS
   @DF-RKS iter   4: -1320.73855728490867   -2.46413e-01   2.72661e-04 ADIIS/DIIS
   @DF-RKS iter   5: -1320.76840235196005   -2.98451e-02   1.34302e-04 ADIIS/DIIS
   @DF-RKS iter   6: -1320.77514022547939   -6.73787e-03   4.35519e-05 DIIS
   @DF-RKS iter   7: -1320.77585728731174   -7.17062e-04   1.45887e-05 DIIS
   @DF-RKS iter   8: -1320.77593666435473   -7.93770e-05   2.87385e-06 DIIS
   @DF-RKS iter   9: -1320.77593906332254   -2.39897e-06   1.59075e-06 DIIS
   @DF-RKS iter  10: -1320.77594006095023   -9.97628e-07   4.06322e-07 DIIS
   @DF-RKS iter  11: -1320.77594011878841   -5.78382e-08   1.62434e-07 DIIS
   @DF-RKS iter  12: -1320.77594012866598   -9.87757e-09   5.26481e-08 DIIS
  Energy and wave function converged.


  ==> Post-Iterations <==

   Electrons on quadrature grid:
      Ntotal   =  203.9999647427 ; deviation = -3.526e-05 

    Orbital Energies [Eh]
    ---------------------

    Doubly Occupied:                                                      

       1A    -19.180423     2A    -19.170444     3A    -19.163938  
       4A    -19.145265     5A    -19.106616     6A    -19.101121  
       7A    -14.354468     8A    -10.321756     9A    -10.258831  
      10A    -10.249633    11A    -10.247921    12A    -10.244485  
      13A    -10.234764    14A    -10.234420    15A    -10.231195  
      16A    -10.220233    17A    -10.218020    18A    -10.212128  
      19A    -10.211131    20A    -10.194153    21A    -10.191795  
      22A    -10.190955    23A    -10.190697    24A    -10.189878  
      25A    -10.189627    26A    -10.184484    27A    -10.183300  
      28A    -10.177500    29A     -1.104118    30A     -1.089616  
      31A     -1.060427    32A     -1.053684    33A     -1.022541  
      34A     -1.014337    35A     -0.959977    36A     -0.889035  
      37A     -0.852513    38A     -0.816268    39A     -0.794301  
      40A     -0.776781    41A     -0.770531    42A     -0.754280  
      43A     -0.745158    44A     -0.725149    45A     -0.703868  
      46A     -0.687049    47A     -0.668298    48A     -0.647196  
      49A     -0.628286    50A     -0.621049    51A     -0.609319  
      52A     -0.608447    53A     -0.585089    54A     -0.561154  
      55A     -0.557067    56A     -0.539230    57A     -0.531138  
      58A     -0.518156    59A     -0.509595    60A     -0.506669  
      61A     -0.492016    62A     -0.488486    63A     -0.488401  
      64A     -0.475328    65A     -0.468506    66A     -0.465420  
      67A     -0.461824    68A     -0.457308    69A     -0.449651  
      70A     -0.445926    71A     -0.442819    72A     -0.439256  
      73A     -0.430447    74A     -0.425381    75A     -0.417097  
      76A     -0.413280    77A     -0.412930    78A     -0.408263  
      79A     -0.400379    80A     -0.399655    81A     -0.394838  
      82A     -0.391017    83A     -0.384960    84A     -0.378132  
      85A     -0.375482    86A     -0.367422    87A     -0.364794  
      88A     -0.361090    89A     -0.360480    90A     -0.354652  
      91A     -0.351298    92A     -0.349304    93A     -0.325831  
      94A     -0.308245    95A     -0.305426    96A     -0.285196  
      97A     -0.277155    98A     -0.267032    99A     -0.251749  
     100A     -0.250265   101A     -0.240857   102A     -0.220668  

    Virtual:                                                              

     103A     -0.072793   104A     -0.028128   105A     -0.021415  
     106A      0.009278   107A      0.018681   108A      0.025126  
     109A      0.028588   110A      0.031005   111A      0.037020  
     112A      0.050781   113A      0.056071   114A      0.063465  
     115A      0.065212   116A      0.068941   117A      0.073020  
     118A      0.077006   119A      0.082379   120A      0.086182  
     121A      0.088087   122A      0.089217   123A      0.092820  
     124A      0.095697   125A      0.097395   126A      0.101180  
     127A      0.105215   128A      0.107849   129A      0.110670  
     130A      0.116607   131A      0.120962   132A      0.123862  
     133A      0.124304   134A      0.128025   135A      0.133162  
     136A      0.142656   137A      0.146665   138A      0.148958  
     139A      0.154454   140A      0.159476   141A      0.162419  
     142A      0.163300   143A      0.169592   144A      0.172506  
     145A      0.183120   146A      0.186536   147A      0.187757  
     148A      0.189780   149A      0.192542   150A      0.199613  
     151A      0.202481   152A      0.206839   153A      0.213088  
     154A      0.216275   155A      0.220256   156A      0.224089  
     157A      0.228411   158A      0.231794   159A      0.235697  
     160A      0.236715   161A      0.244257   162A      0.252770  
     163A      0.254615   164A      0.259179   165A      0.262020  
     166A      0.265346   167A      0.273783   168A      0.275360  
     169A      0.275379   170A      0.282752   171A      0.284719  
     172A      0.291170   173A      0.293971   174A      0.302188  
     175A      0.303885   176A      0.309051   177A      0.309980  
     178A      0.316043   179A      0.317634   180A      0.321710  
     181A      0.326214   182A      0.331413   183A      0.335146  
     184A      0.338640   185A      0.342542   186A      0.349137  
     187A      0.352855   188A      0.354430   189A      0.358799  
     190A      0.360989   191A      0.363469   192A      0.368142  
     193A      0.370284   194A      0.375244   195A      0.380696  
     196A      0.383882   197A      0.385814   198A      0.388229  
     199A      0.390212   200A      0.393903   201A      0.399450  
     202A      0.401581   203A      0.404787   204A      0.408849  
     205A      0.412567   206A      0.414063   207A      0.417884  
     208A      0.420870   209A      0.422322   210A      0.424942  
     211A      0.428608   212A      0.431187   213A      0.435487  
     214A      0.440000   215A      0.442125   216A      0.445288  
     217A      0.447643   218A      0.450658   219A      0.454740  
     220A      0.456779   221A      0.459979   222A      0.460718  
     223A      0.464726   224A      0.468057   225A      0.468485  
     226A      0.475918   227A      0.479864   228A      0.481369  
     229A      0.488808   230A      0.492030   231A      0.496394  
     232A      0.497724   233A      0.500333   234A      0.506979  
     235A      0.510902   236A      0.511313   237A      0.513401  
     238A      0.523592   239A      0.526672   240A      0.528219  
     241A      0.533918   242A      0.540513   243A      0.541745  
     244A      0.546415   245A      0.550550   246A      0.557552  
     247A      0.560618   248A      0.565264   249A      0.578497  
     250A      0.582596   251A      0.588188   252A      0.588849  
     253A      0.598373   254A      0.600999   255A      0.605989  
     256A      0.613980   257A      0.618787   258A      0.621730  
     259A      0.628226   260A      0.630514   261A      0.635333  
     262A      0.641886   263A      0.644921   264A      0.649593  
     265A      0.654602   266A      0.662494   267A      0.664092  
     268A      0.670942   269A      0.674158   270A      0.680424  
     271A      0.680906   272A      0.685499   273A      0.692750  
     274A      0.698604   275A      0.705976   276A      0.710257  
     277A      0.722459   278A      0.726193   279A      0.730830  
     280A      0.740085   281A      0.745893   282A      0.750242  
     283A      0.751988   284A      0.759956   285A      0.764604  
     286A      0.769206   287A      0.775195   288A      0.790133  
     289A      0.790601   290A      0.796515   291A      0.803421  
     292A      0.811028   293A      0.813442   294A      0.819332  
     295A      0.822393   296A      0.825578   297A      0.829152  
     298A      0.830143   299A      0.834706   300A      0.841285  
     301A      0.846157   302A      0.848577   303A      0.857135  
     304A      0.862478   305A      0.870846   306A      0.871561  
     307A      0.874161   308A      0.884255   309A      0.887263  
     310A      0.897613   311A      0.903779   312A      0.908831  
     313A      0.914079   314A      0.916146   315A      0.921050  
     316A      0.927562   317A      0.933169   318A      0.937792  
     319A      0.947747   320A      0.949429   321A      0.955259  
     322A      0.972929   323A      0.976002   324A      0.977697  
     325A      0.985038   326A      0.987456   327A      0.990168  
     328A      0.993700   329A      1.004393   330A      1.012267  
     331A      1.021861   332A      1.028583   333A      1.034933  
     334A      1.040952   335A      1.046872   336A      1.049394  
     337A      1.057231   338A      1.058831   339A      1.061167  
     340A      1.071420   341A      1.076817   342A      1.089449  
     343A      1.095567   344A      1.100377   345A      1.105011  
     346A      1.113406   347A      1.115059   348A      1.126808  
     349A      1.129002   350A      1.133147   351A      1.138207  
     352A      1.151434   353A      1.159045   354A      1.161127  
     355A      1.164629   356A      1.171465   357A      1.180528  
     358A      1.184184   359A      1.189651   360A      1.199784  
     361A      1.205975   362A      1.218755   363A      1.226576  
     364A      1.230821   365A      1.238025   366A      1.247320  
     367A      1.251167   368A      1.258433   369A      1.272743  
     370A      1.285906   371A      1.286808   372A      1.300943  
     373A      1.306479   374A      1.314024   375A      1.321143  
     376A      1.327994   377A      1.331198   378A      1.339037  
     379A      1.347121   380A      1.360880   381A      1.371518  
     382A      1.371782   383A      1.377281   384A      1.384114  
     385A      1.389692   386A      1.394265   387A      1.403796  
     388A      1.406258   389A      1.413523   390A      1.420996  
     391A      1.432615   392A      1.440954   393A      1.454155  
     394A      1.455547   395A      1.460872   396A      1.469829  
     397A      1.478856   398A      1.486229   399A      1.488978  
     400A      1.491798   401A      1.494442   402A      1.498626  
     403A      1.501151   404A      1.504765   405A      1.516784  
     406A      1.518299   407A      1.519786   408A      1.525564  
     409A      1.531891   410A      1.537945   411A      1.539337  
     412A      1.543451   413A      1.548990   414A      1.554899  
     415A      1.555701   416A      1.558936   417A      1.563371  
     418A      1.567842   419A      1.576803   420A      1.579568  
     421A      1.585166   422A      1.587600   423A      1.595232  
     424A      1.596492   425A      1.608053   426A      1.615737  
     427A      1.618740   428A      1.619782   429A      1.626499  
     430A      1.635081   431A      1.639563   432A      1.643544  
     433A      1.654705   434A      1.658086   435A      1.660934  
     436A      1.670794   437A      1.674314   438A      1.683042  
     439A      1.693862   440A      1.698908   441A      1.707916  
     442A      1.711372   443A      1.723958   444A      1.732805  
     445A      1.743187   446A      1.745296   447A      1.759815  
     448A      1.769436   449A      1.772720   450A      1.775305  
     451A      1.775843   452A      1.780814   453A      1.792843  
     454A      1.794623   455A      1.799316   456A      1.807710  
     457A      1.813849   458A      1.818699   459A      1.821427  
     460A      1.836399   461A      1.839688   462A      1.847109  
     463A      1.855261   464A      1.863767   465A      1.868615  
     466A      1.879059   467A      1.880997   468A      1.889775  
     469A      1.894363   470A      1.907914   471A      1.918670  
     472A      1.926376   473A      1.926954   474A      1.933949  
     475A      1.934894   476A      1.946853   477A      1.956490  
     478A      1.965570   479A      1.966866   480A      1.972573  
     481A      1.984875   482A      1.988503   483A      1.994538  
     484A      1.997880   485A      2.006889   486A      2.010727  
     487A      2.018174   488A      2.022637   489A      2.027098  
     490A      2.036276   491A      2.040992   492A      2.047664  
     493A      2.057830   494A      2.069499   495A      2.070715  
     496A      2.071367   497A      2.082816   498A      2.085748  
     499A      2.089675   500A      2.097584   501A      2.101325  
     502A      2.106646   503A      2.112397   504A      2.115033  
     505A      2.123505   506A      2.135757   507A      2.138397  
     508A      2.150937   509A      2.156825   510A      2.164954  
     511A      2.170482   512A      2.174424   513A      2.179015  
     514A      2.189741   515A      2.204393   516A      2.213299  
     517A      2.223087   518A      2.229362   519A      2.239463  
     520A      2.244538   521A      2.250232   522A      2.253550  
     523A      2.257174   524A      2.261827   525A      2.269857  
     526A      2.273867   527A      2.281699   528A      2.293405  
     529A      2.297819   530A      2.302152   531A      2.310011  
     532A      2.315476   533A      2.321508   534A      2.325327  
     535A      2.328056   536A      2.330941   537A      2.341868  
     538A      2.349907   539A      2.358862   540A      2.360205  
     541A      2.372808   542A      2.375673   543A      2.380588  
     544A      2.391111   545A      2.401241   546A      2.404834  
     547A      2.409609   548A      2.414770   549A      2.422073  
     550A      2.434156   551A      2.437581   552A      2.442181  
     553A      2.446824   554A      2.457656   555A      2.462213  
     556A      2.470362   557A      2.482692   558A      2.486373  
     559A      2.492081   560A      2.493571   561A      2.500316  
     562A      2.510028   563A      2.515814   564A      2.523902  
     565A      2.530848   566A      2.534868   567A      2.537127  
     568A      2.546451   569A      2.557080   570A      2.562038  
     571A      2.562867   572A      2.568205   573A      2.571573  
     574A      2.575373   575A      2.580267   576A      2.587857  
     577A      2.592932   578A      2.595373   579A      2.604919  
     580A      2.611818   581A      2.615119   582A      2.630416  
     583A      2.632391   584A      2.635708   585A      2.643463  
     586A      2.652587   587A      2.663386   588A      2.664915  
     589A      2.669678   590A      2.676619   591A      2.686743  
     592A      2.694602   593A      2.701005   594A      2.705411  
     595A      2.710436   596A      2.712212   597A      2.720940  
     598A      2.732055   599A      2.738842   600A      2.741492  
     601A      2.748863   602A      2.757636   603A      2.764061  
     604A      2.771856   605A      2.784064   606A      2.787024  
     607A      2.793833   608A      2.795573   609A      2.806471  
     610A      2.811161   611A      2.814742   612A      2.825501  
     613A      2.830264   614A      2.832949   615A      2.837848  
     616A      2.850240   617A      2.855397   618A      2.860720  
     619A      2.871971   620A      2.873327   621A      2.877316  
     622A      2.889156   623A      2.896200   624A      2.903638  
     625A      2.906741   626A      2.910088   627A      2.916187  
     628A      2.926376   629A      2.937585   630A      2.938548  
     631A      2.947819   632A      2.958682   633A      2.963035  
     634A      2.970650   635A      2.972330   636A      2.973149  
     637A      2.983067   638A      2.991727   639A      2.995101  
     640A      3.004337   641A      3.008233   642A      3.016252  
     643A      3.018460   644A      3.023741   645A      3.032744  
     646A      3.036294   647A      3.039781   648A      3.045348  
     649A      3.050419   650A      3.057933   651A      3.061449  
     652A      3.069884   653A      3.079115   654A      3.081463  
     655A      3.087548   656A      3.092729   657A      3.097654  
     658A      3.110604   659A      3.110648   660A      3.115498  
     661A      3.121473   662A      3.126944   663A      3.131504  
     664A      3.140191   665A      3.146986   666A      3.155018  
     667A      3.158028   668A      3.162613   669A      3.167512  
     670A      3.168808   671A      3.179796   672A      3.185059  
     673A      3.190126   674A      3.194068   675A      3.198603  
     676A      3.203371   677A      3.210827   678A      3.212456  
     679A      3.219246   680A      3.219646   681A      3.223412  
     682A      3.232060   683A      3.236563   684A      3.239773  
     685A      3.243760   686A      3.250527   687A      3.250993  
     688A      3.260860   689A      3.268115   690A      3.274505  
     691A      3.278159   692A      3.291612   693A      3.293835  
     694A      3.296561   695A      3.298767   696A      3.304965  
     697A      3.311761   698A      3.315848   699A      3.323001  
     700A      3.323193   701A      3.327594   702A      3.330624  
     703A      3.338707   704A      3.340973   705A      3.346986  
     706A      3.354977   707A      3.358882   708A      3.363345  
     709A      3.366210   710A      3.367303   711A      3.369288  
     712A      3.379030   713A      3.381097   714A      3.389419  
     715A      3.396410   716A      3.400626   717A      3.403576  
     718A      3.412047   719A      3.419685   720A      3.421008  
     721A      3.427430   722A      3.428047   723A      3.435709  
     724A      3.441792   725A      3.448999   726A      3.456042  
     727A      3.458938   728A      3.461522   729A      3.463302  
     730A      3.469950   731A      3.475351   732A      3.476461  
     733A      3.482081   734A      3.490963   735A      3.497918  
     736A      3.507082   737A      3.510942   738A      3.519737  
     739A      3.521705   740A      3.524238   741A      3.531457  
     742A      3.537244   743A      3.543356   744A      3.546510  
     745A      3.565753   746A      3.568869   747A      3.572804  
     748A      3.579786   749A      3.584925   750A      3.597366  
     751A      3.609501   752A      3.613520   753A      3.616948  
     754A      3.621089   755A      3.628241   756A      3.642069  
     757A      3.653146   758A      3.665916   759A      3.669227  
     760A      3.678705   761A      3.694450   762A      3.699749  
     763A      3.706131   764A      3.711991   765A      3.714984  
     766A      3.728029   767A      3.735849   768A      3.738634  
     769A      3.756101   770A      3.760358   771A      3.774933  
     772A      3.776730   773A      3.800076   774A      3.805526  
     775A      3.808315   776A      3.814687   777A      3.825365  
     778A      3.849639   779A      3.856804   780A      3.862756  
     781A      3.872593   782A      3.875245   783A      3.887716  
     784A      3.896086   785A      3.902469   786A      3.915972  
     787A      3.925403   788A      3.929683   789A      3.938086  
     790A      3.951420   791A      3.965990   792A      3.968510  
     793A      3.989663   794A      3.992652   795A      3.998786  
     796A      4.003023   797A      4.011031   798A      4.024056  
     799A      4.039880   800A      4.043124   801A      4.056908  
     802A      4.064420   803A      4.077195   804A      4.087045  
     805A      4.106844   806A      4.117223   807A      4.121953  
     808A      4.123429   809A      4.151385   810A      4.160238  
     811A      4.169056   812A      4.172845   813A      4.180513  
     814A      4.194586   815A      4.199962   816A      4.210287  
     817A      4.212550   818A      4.227917   819A      4.231795  
     820A      4.234663   821A      4.242796   822A      4.254344  
     823A      4.269078   824A      4.271955   825A      4.282978  
     826A      4.287639   827A      4.296657   828A      4.306128  
     829A      4.316634   830A      4.322626   831A      4.339920  
     832A      4.345931   833A      4.357970   834A      4.363006  
     835A      4.370994   836A      4.375083   837A      4.383450  
     838A      4.396179   839A      4.405763   840A      4.414464  
     841A      4.420044   842A      4.425926   843A      4.444636  
     844A      4.451631   845A      4.457355   846A      4.471799  
     847A      4.502958   848A      4.510306   849A      4.511030  
     850A      4.528733   851A      4.542386   852A      4.556811  
     853A      4.561647   854A      4.572373   855A      4.597096  
     856A      4.611904   857A      4.626346   858A      4.632278  
     859A      4.659506   860A      4.677215   861A      4.680439  
     862A      4.706734   863A      4.719529   864A      4.724269  
     865A      4.749547   866A      4.761692   867A      4.779544  
     868A      4.783954   869A      4.814972   870A      4.838077  
     871A      4.861625   872A      4.869840   873A      4.898250  
     874A      4.902528   875A      4.923105   876A      4.931900  
     877A      4.953826   878A      4.960367   879A      4.972439  
     880A      4.997033   881A      5.014379   882A      5.023844  
     883A      5.042162   884A      5.083220   885A      5.107585  
     886A      5.139437   887A      5.145867   888A      5.154969  
     889A      5.157351   890A      5.183410   891A      5.212235  
     892A      5.218762   893A      5.225485   894A      5.233970  
     895A      5.240229   896A      5.271651   897A      5.287846  
     898A      5.310574   899A      5.314065   900A      5.326322  
     901A      5.340682   902A      5.368864   903A      5.391959  
     904A      5.399581   905A      5.408431   906A      5.417694  
     907A      5.442897   908A      5.455083   909A      5.462920  
     910A      5.514060   911A      5.519362   912A      5.535877  
     913A      5.556341   914A      5.573736   915A      5.595946  
     916A      5.626482   917A      5.643564   918A      5.650089  
     919A      5.668499   920A      5.682366   921A      5.690912  
     922A      5.756796   923A      5.776842   924A      5.781875  
     925A      5.816807   926A      5.869467   927A      5.876690  
     928A      5.881408   929A      5.890103   930A      5.928220  
     931A      5.969114   932A      5.973569   933A      6.039718  
     934A      6.089372   935A      6.117634   936A      6.126304  
     937A      6.148333   938A      6.195483   939A      6.219273  
     940A      6.256446   941A      6.285111   942A      6.340698  
     943A      6.382121   944A      6.389329   945A      6.394832  
     946A      6.401549   947A      6.407701   948A      6.427923  
     949A      6.542582   950A      6.564820   951A      6.597351  
     952A      6.639668   953A      6.653721   954A      6.685077  
     955A      6.700883   956A      6.745668   957A      6.751469  
     958A      6.764839   959A      6.770991   960A      6.787664  
     961A      6.827496   962A      6.830007   963A      6.839850  
     964A      6.882632   965A      6.949856   966A      6.958476  
     967A      6.998941   968A      7.060436   969A      7.083369  
     970A      7.108455   971A      7.138588   972A      7.155554  
     973A      7.222843   974A      7.268351   975A      7.330606  
     976A      7.366965   977A      7.428325   978A      7.436129  
     979A     22.245761   980A     22.252670   981A     22.278202  
     982A     22.370643   983A     22.381993   984A     22.541585  
     985A     22.564596   986A     22.575690   987A     22.591340  
     988A     22.641741   989A     22.767452   990A     22.831002  
     991A     22.840154   992A     22.844622   993A     22.988681  
     994A     23.029912   995A     23.086604   996A     23.144901  
     997A     23.408723   998A     23.452959   999A     23.661318  
    1000A     32.997634  1001A     43.898624  1002A     43.915761  
    1003A     43.918060  1004A     44.194895  1005A     44.206827  
    1006A     44.240840  

    Final Occupation by Irrep:
              A 
    DOCC [   102 ]
    NA   [   102 ]
    NB   [   102 ]

  @DF-RKS Final Energy: -1320.77594012866598

   => Energetics <=

    Nuclear Repulsion Energy =           2734.1279889522461417
    One-Electron Energy =               -7236.6644580476968258
    Two-Electron Energy =                3328.5448600737836387
    DFT Exchange-Correlation Energy =    -146.6685636970603923
    Empirical Dispersion Energy =          -0.1157674099392502
    VV10 Nonlocal Energy =                  0.0000000000000000
    Total Energy =                      -1320.7759401286662069

Computation Completed


Properties will be evaluated at   0.000000,   0.000000,   0.000000 [a0]

Properties computed using the SCF density matrix


 Multipole Moments:

 ------------------------------------------------------------------------------------
     Multipole            Electronic (a.u.)      Nuclear  (a.u.)        Total (a.u.)
 ------------------------------------------------------------------------------------

 L = 1.  Multiply by 2.5417464519 to convert [e a0] to [Debye]
 Dipole X            :         78.0638311          -78.4500968           -0.3862657
 Dipole Y            :        -29.2172686           27.9649210           -1.2523476
 Dipole Z            :         45.2499799          -44.3865998            0.8633801
 Magnitude           :                                                    1.5693950

 ------------------------------------------------------------------------------------

*** tstop() called on choehoyun-ui-MacBookAir.local at Sun Aug  9 04:05:05 2026
Module time:
	user time   =    2525.33 seconds =      42.09 minutes
	system time =      57.16 seconds =       0.95 minutes
	total time  =       1395 seconds =      23.25 minutes
Total time:
	user time   =    2525.33 seconds =      42.09 minutes
	system time =      57.16 seconds =       0.95 minutes
	total time  =       1395 seconds =      23.25 minutes

    Psi4 stopped on: Sunday, 09 August 2026 04:05AM
    Psi4 wall time for execution: 0:23:15.49

*** Psi4 exiting successfully. Buy a developer a beer!
