
    -----------------------------------------------------------------------
          Psi4: An Open-Source Ab Initio Electronic Structure Package
                               Psi4 1.11 release

                         Git: Rev {} zzzzzzz 


    D. G. A. Smith, L. A. Burns, A. C. Simmonett, R. M. Parrish,
    M. C. Schieber, R. Galvelis, P. Kraus, H. Kruse, R. Di Remigio,
    A. Alenaizan, A. M. James, S. Lehtola, J. P. Misiewicz, M. Scheurer,
    R. A. Shaw, J. B. Schriber, Y. Xie, Z. L. Glick, D. A. Sirianni,
    J. S. O'Brien, J. M. Waldrop, A. Kumar, E. G. Hohenstein,
    B. P. Pritchard, B. R. Brooks, H. F. Schaefer III, A. Yu. Sokolov,
    K. Patkowski, A. E. DePrince III, U. Bozkaya, R. A. King,
    F. A. Evangelista, J. M. Turney, T. D. Crawford, C. D. Sherrill,
    J. Chem. Phys. 152(18) 184108 (2020). https://doi.org/10.1063/5.0006002

                            Additional Code Authors
    E. T. Seidl, C. L. Janssen, E. F. Valeev, M. L. Leininger,
    J. F. Gonthier, R. M. Richard, H. R. McAlexander, M. Saitow, X. Wang,
    P. Verma, M. H. Lechner, A. Jiang, S. Behnle, A. G. Heide,
    M. F. Herbst, D. L. Poole, T. Győri, E. C. Mitchell, J. P. Pederson,
    and A. M. Wallace

             Previous Authors, Complete List of Code Contributors,
                       and Citations for Specific Modules
    https://github.com/psi4/psi4/blob/master/codemeta.json
    https://github.com/psi4/psi4/graphs/contributors
    https://psicode.org/psi4manual/master/introduction.html#citing-psifour

    -----------------------------------------------------------------------


    Psi4 started on: Sunday, 09 August 2026 04:22PM

    Process ID: 61937
    Host:       choehoyun-ui-MacBookAir.local
    PSIDATADIR: /Users/hoyoun/micromamba/envs/psi4env/share/psi4
    Memory:     500.0 MiB
    Threads:    8
    Addons:     a̶d̶c̶c̶, a̶m̶b̶i̶t̶, b̶s̶e̶, c̶c̶t̶3̶, c̶f̶o̶u̶r̶, c̶h̶e̶m̶p̶s̶2̶, c̶p̶p̶e̶, d̶d̶x̶, dftd3,
                d̶f̶t̶d̶4̶, dkh, ecpint, einsums, f̶o̶r̶t̶e̶, gauxc, g̶c̶p̶, g̶d̶m̶a̶,
                g̶e̶o̶m̶e̶t̶r̶i̶c̶, g̶p̶u̶_̶d̶f̶c̶c̶, i̶n̶t̶e̶g̶r̶a̶t̶o̶r̶x̶x̶, i̶p̶i̶,
                l̶i̶b̶e̶f̶p̶, m̶d̶i̶, m̶p̶2̶d̶, m̶r̶c̶c̶, ooo, o̶p̶e̶n̶f̶e̶r̶m̶i̶o̶n̶p̶s̶i̶4̶,
                pcmsolver, p̶s̶i̶4̶f̶o̶c̶k̶c̶i̶, p̶s̶i̶x̶a̶s̶, p̶y̶e̶i̶n̶s̶u̶m̶s̶, r̶e̶s̶p̶,
                s̶i̶m̶i̶n̶t̶, s̶n̶s̶m̶p̶2̶, v̶2̶r̶d̶m̶_̶c̶a̶s̶s̶c̶f̶

  ==> Input File <==

--------------------------------------------------------------------------
memory 3 GB
molecule mol {
0 1
C 0.27500598061763 0.07794299453292 -0.16825398816131
C -1.21475891352302 -0.21185898516401 -0.46085796754010
C -0.09832099296257 1.45300489696702 0.19032398627195
C -1.40726990030587 1.24700191170470 -0.04390699684943
H -1.40599790011035 -0.38346097276162 -1.52407689160697
C 1.38004390214154 -0.65690895353915 -0.21009998529800
H 1.29335890802214 -1.69240087985891 -0.52446596260030
C 2.75020980463181 -0.17108098776215 0.14747298953491
H 2.73756180570297 0.87444493806313 0.45364096777367
H 3.17726877443998 -0.75715394646798 0.96572393122128
H 3.43692075607227 -0.26629298100066 -0.69796595062944
H 0.46989396687224 2.31316383577963 0.51553096361817
H -2.28675183758068 1.87029286728514 0.02986199813020
C -1.89044286600924 -1.28476690900786 0.37908897308804
H -2.97289778915894 -1.26840790989299 0.23745798301335
H -1.53431989123946 -2.27839583837303 0.10291799243611
H -1.68183288075057 -1.13179991964687 1.43877389774992
units angstrom
no_reorient
no_com
}
set basis def2-TZVP
set scf_type df
set freeze_core true
set e_convergence 8
energy('b3lyp-d3bj')
--------------------------------------------------------------------------

  Memory set to   2.794 GiB by Python driver.

Scratch directory: /Users/hoyoun/Documents/Yonsei_AX_Camp/(진짜_이게_최종)/calibration/dft_work/_scratch/R48/
   => Libint2 <=

    Primary   basis highest AM E, G, H:  7, 6, 3
    Auxiliary basis highest AM E, G, H:  7, 7, 4
    Onebody   basis highest AM E, G, H:  -, -, -
    Solid Harmonics ordering:            Gaussian

*** tstart() called on choehoyun-ui-MacBookAir.local
*** at Sun Aug  9 16:22:09 2026

   => Loading Basis Set <=

    Name: DEF2-TZVP
    Role: ORBITAL
    Keyword: BASIS
    atoms 1-4, 6, 8, 14     entry C          line   123 file /Users/hoyoun/micromamba/envs/psi4env/share/psi4/basis/def2-tzvp.gbs 
    atoms 5, 7, 9-13, 15-17 entry H          line    15 file /Users/hoyoun/micromamba/envs/psi4env/share/psi4/basis/def2-tzvp.gbs 

   => B3LYP-D3(BJ): Empirical Dispersion <=

    Grimme's -D3 (BJ-damping) Dispersion Correction
    Grimme S.; Ehrlich S.; Goerigk L. (2011), J. Comput. Chem., 32: 1456

        s6 =       1.000000
        s8 =       1.988900
        a1 =       0.398100
        a2 =       4.421100


         ---------------------------------------------------------
                                   SCF
               by Justin Turney, Rob Parrish, Andy Simmonett
                          and Daniel G. A. Smith
                              RKS Reference
                        8 Threads,   2861 MiB Core
         ---------------------------------------------------------

  ==> Geometry <==

    Molecular point group: c1
    Full point group: C1

    Geometry (in Angstrom), charge = 0, multiplicity = 1:

       Center              X                  Y                   Z               Mass       
    ------------   -----------------  -----------------  -----------------  -----------------
         C            0.275005980618     0.077942994533    -0.168253988161    12.000000000000
         C           -1.214758913523    -0.211858985164    -0.460857967540    12.000000000000
         C           -0.098320992963     1.453004896967     0.190323986272    12.000000000000
         C           -1.407269900306     1.247001911705    -0.043906996849    12.000000000000
         H           -1.405997900110    -0.383460972762    -1.524076891607     1.007825032230
         C            1.380043902142    -0.656908953539    -0.210099985298    12.000000000000
         H            1.293358908022    -1.692400879859    -0.524465962600     1.007825032230
         C            2.750209804632    -0.171080987762     0.147472989535    12.000000000000
         H            2.737561805703     0.874444938063     0.453640967774     1.007825032230
         H            3.177268774440    -0.757153946468     0.965723931221     1.007825032230
         H            3.436920756072    -0.266292981001    -0.697965950629     1.007825032230
         H            0.469893966872     2.313163835780     0.515530963618     1.007825032230
         H           -2.286751837581     1.870292867285     0.029861998130     1.007825032230
         C           -1.890442866009    -1.284766909008     0.379088973088    12.000000000000
         H           -2.972897789159    -1.268407909893     0.237457983013     1.007825032230
         H           -1.534319891239    -2.278395838373     0.102917992436     1.007825032230
         H           -1.681832880751    -1.131799919647     1.438773897750     1.007825032230

  Running in c1 symmetry.

  Rotational constants: A =      0.16220  B =      0.06372  C =      0.04909 [cm^-1]
  Rotational constants: A =   4862.71612  B =   1910.39260  C =   1471.71195 [MHz]
  Nuclear repulsion =  278.846694121386406

  Charge       = 0
  Multiplicity = 1
  Electrons    = 52
  Nalpha       = 26
  Nbeta        = 26

  ==> Algorithm <==

  SCF Algorithm Type is DF.
  DIIS enabled.
  MOM disabled.
  Fractional occupation disabled.
  Guess Type is SAD.
  Energy threshold   = 1.00e-08
  Density threshold  = 1.00e-06
  Integral threshold = 1.00e-12

  ==> Primary Basis <==

  Basis Set: DEF2-TZVP
    Blend: DEF2-TZVP
    Number of shells: 117
    Number of basis functions: 277
    Number of Cartesian functions: 312
    Spherical Harmonics?: true
    Max angular momentum: 3

  ==> DFT Potential <==

   => LibXC <=

    Version 7.1.2
    S. Lehtola, C. Steigemann, M. J. T. Oliveira, and M. A. L. Marques,  SoftwareX 7, 1–5 (2018) (10.1016/j.softx.2017.11.002)

   => Composite Functional: B3LYP-D3BJ2B <= 

    B3LYP-d3bj2b Hyb-GGA Exchange-Correlation Functional

    P. J. Stephens, F. J. Devlin, C. F. Chabalowski, and M. J. Frisch,  J. Phys. Chem. 98, 11623 (1994) (10.1021/j100096a001)

    Deriv               =              1
    GGA                 =           TRUE
    Meta                =          FALSE

    Exchange Hybrid     =           TRUE
    MP2 Hybrid          =          FALSE

   => Exchange Functionals <=

    0.0800   Slater exchange
    0.7200         Becke 88

   => Exact (HF) Exchange <=

    0.2000               HF 

   => Correlation Functionals <=

    0.1900   Vosko, Wilk & Nusair (VWN5_RPA)
    0.8100   Lee, Yang & Parr

   => LibXC Density Thresholds  <==

    XC_HYB_GGA_XC_B3LYP:  1.00E-15 

   => Molecular Quadrature <=

    Radial Scheme          =       TREUTLER
    Pruning Scheme         =           NONE
    Nuclear Scheme         =       TREUTLER

    Blocking Scheme        =         OCTREE
    BS radius alpha        =              1
    Pruning alpha          =              1
    Radial Points          =             75
    Spherical Points       =            302
    Total Points           =         360159
    Total Blocks           =           2684
    Max Points             =            256
    Max Functions          =            265
    Weights Tolerance      =       1.00E-15

   => Loading Basis Set <=

    Name: (DEF2-TZVP AUX)
    Role: JKFIT
    Keyword: DF_BASIS_SCF
    atoms 1-4, 6, 8, 14     entry C          line   198 file /Users/hoyoun/micromamba/envs/psi4env/share/psi4/basis/def2-universal-jkfit.gbs 
    atoms 5, 7, 9-13, 15-17 entry H          line    18 file /Users/hoyoun/micromamba/envs/psi4env/share/psi4/basis/def2-universal-jkfit.gbs 

  ==> Integral Setup <==

  DFHelper Memory: AOs need 0.406 GiB; user supplied 0.406 GiB. 
  SCF_SUBTYPE=INCORE selected. In-core MEM_DF algorithm will be used.
  Using in-core AOs.

  ==> MemDFJK: Density-Fitted J/K Matrices <==

    J tasked:                   Yes
    K tasked:                   Yes
    wK tasked:                   No
    OpenMP threads:               8
    Memory [MiB]:               416
    Algorithm:                 Core
    Schwarz Cutoff:           1E-12
    Mask sparsity (%):       5.0255
    Fitting Condition:        1E-10

   => Auxiliary Basis Set <=

  Basis Set: (DEF2-TZVP AUX)
    Blend: DEF2-UNIVERSAL-JKFIT
    Number of shells: 235
    Number of basis functions: 705
    Number of Cartesian functions: 823
    Spherical Harmonics?: true
    Max angular momentum: 4

  Cached 50.0% of DFT collocation blocks in 1.042 [GiB].

  Minimum eigenvalue in the overlap matrix is 2.6908851732E-05.
  Reciprocal condition number of the overlap matrix is 2.6961730730E-06.
    Using symmetric orthogonalization.

  ==> Pre-Iterations <==

  SCF Guess: Superposition of Atomic Densities via on-the-fly atomic UHF (no occupation information).

   -------------------------
    Irrep   Nso     Nmo    
   -------------------------
     A        277     277 
   -------------------------
    Total     277     277
   -------------------------

  ==> Iterations <==

                           Total Energy        Delta E     RMS |[F,P]|

   @DF-RKS iter SAD:  -272.13652528581378   -2.72137e+02   0.00000e+00 
   @DF-RKS iter   1:  -272.04157318764476    9.49521e-02   4.38742e-03 ADIIS/DIIS
   @DF-RKS iter   2:  -271.44229170456777    5.99281e-01   5.66247e-03 ADIIS/DIIS
   @DF-RKS iter   3:  -272.79764678212888   -1.35536e+00   7.80243e-04 ADIIS/DIIS
   @DF-RKS iter   4:  -272.80877557191201   -1.11288e-02   5.67807e-04 ADIIS/DIIS
   @DF-RKS iter   5:  -272.82030816639156   -1.15326e-02   1.32111e-04 ADIIS/DIIS
   @DF-RKS iter   6:  -272.82094218506165   -6.34019e-04   4.47843e-05 DIIS
   @DF-RKS iter   7:  -272.82101156012601   -6.93751e-05   1.58580e-05 DIIS
   @DF-RKS iter   8:  -272.82102061797673   -9.05785e-06   4.70559e-06 DIIS
   @DF-RKS iter   9:  -272.82102144783249   -8.29856e-07   1.02977e-06 DIIS
   @DF-RKS iter  10:  -272.82102148935758   -4.15251e-08   2.18383e-07 DIIS
   @DF-RKS iter  11:  -272.82102149094322   -1.58565e-09   7.13254e-08 DIIS
  Energy and wave function converged.


  ==> Post-Iterations <==

   Electrons on quadrature grid:
      Ntotal   =   52.0001058617 ; deviation = 1.059e-04 

    Orbital Energies [Eh]
    ---------------------

    Doubly Occupied:                                                      

       1A    -10.181231     2A    -10.177525     3A    -10.175253  
       4A    -10.173624     5A    -10.165467     6A    -10.164832  
       7A    -10.159520     8A     -0.872751     9A     -0.770346  
      10A     -0.729608    11A     -0.668992    12A     -0.612110  
      13A     -0.576368    14A     -0.507604    15A     -0.488002  
      16A     -0.441314    17A     -0.436514    18A     -0.411943  
      19A     -0.402536    20A     -0.390543    21A     -0.381903  
      22A     -0.360019    23A     -0.324356    24A     -0.309475  
      25A     -0.294231    26A     -0.224887  

    Virtual:                                                              

      27A     -0.024582    28A      0.039421    29A      0.048683  
      30A      0.067566    31A      0.075168    32A      0.086947  
      33A      0.089855    34A      0.093320    35A      0.116011  
      36A      0.116843    37A      0.129672    38A      0.134707  
      39A      0.150810    40A      0.157126    41A      0.162522  
      42A      0.167777    43A      0.195292    44A      0.198598  
      45A      0.211789    46A      0.236952    47A      0.243542  
      48A      0.244160    49A      0.261515    50A      0.266827  
      51A      0.276615    52A      0.296734    53A      0.323065  
      54A      0.331360    55A      0.338600    56A      0.354784  
      57A      0.366605    58A      0.376458    59A      0.395713  
      60A      0.398716    61A      0.409520    62A      0.415499  
      63A      0.421943    64A      0.429613    65A      0.435627  
      66A      0.450854    67A      0.463887    68A      0.466436  
      69A      0.467606    70A      0.473327    71A      0.487849  
      72A      0.500740    73A      0.503250    74A      0.508655  
      75A      0.538908    76A      0.556851    77A      0.585404  
      78A      0.594354    79A      0.617131    80A      0.636661  
      81A      0.670926    82A      0.679261    83A      0.690308  
      84A      0.734171    85A      0.745278    86A      0.778838  
      87A      0.793784    88A      0.809246    89A      0.838602  
      90A      0.881752    91A      0.895967    92A      0.912356  
      93A      0.938389    94A      0.951267    95A      0.970219  
      96A      1.007860    97A      1.012376    98A      1.024184  
      99A      1.042921   100A      1.054348   101A      1.067199  
     102A      1.083951   103A      1.091432   104A      1.100792  
     105A      1.122383   106A      1.126460   107A      1.163118  
     108A      1.195775   109A      1.219459   110A      1.236730  
     111A      1.273840   112A      1.284839   113A      1.326090  
     114A      1.336637   115A      1.376426   116A      1.385743  
     117A      1.411510   118A      1.440821   119A      1.469484  
     120A      1.494475   121A      1.511960   122A      1.527658  
     123A      1.534611   124A      1.538047   125A      1.544621  
     126A      1.553404   127A      1.574051   128A      1.582816  
     129A      1.587651   130A      1.625964   131A      1.628989  
     132A      1.668300   133A      1.688024   134A      1.697494  
     135A      1.743193   136A      1.794446   137A      1.803010  
     138A      1.816382   139A      1.825603   140A      1.872118  
     141A      1.902613   142A      1.919157   143A      1.929687  
     144A      1.983289   145A      2.009650   146A      2.054179  
     147A      2.082100   148A      2.089104   149A      2.102771  
     150A      2.138436   151A      2.155359   152A      2.171897  
     153A      2.187596   154A      2.201039   155A      2.257266  
     156A      2.265283   157A      2.285484   158A      2.301104  
     159A      2.335293   160A      2.349056   161A      2.357511  
     162A      2.361422   163A      2.380456   164A      2.393621  
     165A      2.417336   166A      2.438290   167A      2.463157  
     168A      2.494760   169A      2.508823   170A      2.536886  
     171A      2.541633   172A      2.548385   173A      2.564818  
     174A      2.572695   175A      2.594241   176A      2.600538  
     177A      2.621378   178A      2.670715   179A      2.697946  
     180A      2.713296   181A      2.725495   182A      2.769542  
     183A      2.787257   184A      2.800375   185A      2.826781  
     186A      2.834408   187A      2.848677   188A      2.876960  
     189A      2.917857   190A      2.926506   191A      2.956607  
     192A      2.976211   193A      3.000311   194A      3.020188  
     195A      3.022289   196A      3.049314   197A      3.060701  
     198A      3.066475   199A      3.097933   200A      3.105703  
     201A      3.127750   202A      3.146814   203A      3.164063  
     204A      3.175132   205A      3.197714   206A      3.202165  
     207A      3.232687   208A      3.234066   209A      3.255591  
     210A      3.273935   211A      3.283831   212A      3.300447  
     213A      3.320783   214A      3.325324   215A      3.336455  
     216A      3.344429   217A      3.373631   218A      3.405796  
     219A      3.434884   220A      3.457871   221A      3.478089  
     222A      3.506827   223A      3.522481   224A      3.549521  
     225A      3.558103   226A      3.567261   227A      3.585769  
     228A      3.646998   229A      3.659642   230A      3.676300  
     231A      3.704373   232A      3.708364   233A      3.764626  
     234A      3.793752   235A      3.822630   236A      3.846120  
     237A      3.902622   238A      3.931608   239A      3.956940  
     240A      4.021190   241A      4.037566   242A      4.053394  
     243A      4.108528   244A      4.137579   245A      4.147500  
     246A      4.202755   247A      4.244444   248A      4.281014  
     249A      4.342102   250A      4.349926   251A      4.362668  
     252A      4.416728   253A      4.441583   254A      4.466484  
     255A      4.507308   256A      4.525998   257A      4.565185  
     258A      4.578058   259A      4.675360   260A      4.699336  
     261A      4.735942   262A      4.759725   263A      4.809534  
     264A      4.839108   265A      4.969159   266A      5.067223  
     267A      5.082573   268A      5.253993   269A      5.442930  
     270A      5.600350   271A     22.110653   272A     22.337400  
     273A     22.371311   274A     22.545495   275A     22.660515  
     276A     22.733688   277A     23.271023  

    Final Occupation by Irrep:
              A 
    DOCC [    26 ]
    NA   [    26 ]
    NB   [    26 ]

  @DF-RKS Final Energy:  -272.82102149094322

   => Energetics <=

    Nuclear Repulsion Energy =            278.8466941213864061
    One-Electron Energy =                -918.1798607934640586
    Two-Electron Energy =                 400.3337678868502962
    DFT Exchange-Correlation Energy =     -33.7977368224946986
    Empirical Dispersion Energy =          -0.0238858832212199
    VV10 Nonlocal Energy =                  0.0000000000000000
    Total Energy =                       -272.8210214909432239

Computation Completed


Properties will be evaluated at   0.000000,   0.000000,   0.000000 [a0]

Properties computed using the SCF density matrix


 Multipole Moments:

 ------------------------------------------------------------------------------------
     Multipole            Electronic (a.u.)      Nuclear  (a.u.)        Total (a.u.)
 ------------------------------------------------------------------------------------

 L = 1.  Multiply by 2.5417464519 to convert [e a0] to [Debye]
 Dipole X            :         -0.0259129            0.0000113           -0.0259015
 Dipole Y            :          0.0121454           -0.0000132            0.0121322
 Dipole Z            :          0.0048882            0.0000019            0.0048901
 Magnitude           :                                                    0.0290171

 ------------------------------------------------------------------------------------

*** tstop() called on choehoyun-ui-MacBookAir.local at Sun Aug  9 16:22:18 2026
Module time:
	user time   =      56.47 seconds =       0.94 minutes
	system time =       1.49 seconds =       0.02 minutes
	total time  =          9 seconds =       0.15 minutes
Total time:
	user time   =      56.47 seconds =       0.94 minutes
	system time =       1.49 seconds =       0.02 minutes
	total time  =          9 seconds =       0.15 minutes

    Psi4 stopped on: Sunday, 09 August 2026 04:22PM
    Psi4 wall time for execution: 0:00:08.81

*** Psi4 exiting successfully. Buy a developer a beer!
