
    -----------------------------------------------------------------------
          Psi4: An Open-Source Ab Initio Electronic Structure Package
                               Psi4 1.11 release

                         Git: Rev {} zzzzzzz 


    D. G. A. Smith, L. A. Burns, A. C. Simmonett, R. M. Parrish,
    M. C. Schieber, R. Galvelis, P. Kraus, H. Kruse, R. Di Remigio,
    A. Alenaizan, A. M. James, S. Lehtola, J. P. Misiewicz, M. Scheurer,
    R. A. Shaw, J. B. Schriber, Y. Xie, Z. L. Glick, D. A. Sirianni,
    J. S. O'Brien, J. M. Waldrop, A. Kumar, E. G. Hohenstein,
    B. P. Pritchard, B. R. Brooks, H. F. Schaefer III, A. Yu. Sokolov,
    K. Patkowski, A. E. DePrince III, U. Bozkaya, R. A. King,
    F. A. Evangelista, J. M. Turney, T. D. Crawford, C. D. Sherrill,
    J. Chem. Phys. 152(18) 184108 (2020). https://doi.org/10.1063/5.0006002

                            Additional Code Authors
    E. T. Seidl, C. L. Janssen, E. F. Valeev, M. L. Leininger,
    J. F. Gonthier, R. M. Richard, H. R. McAlexander, M. Saitow, X. Wang,
    P. Verma, M. H. Lechner, A. Jiang, S. Behnle, A. G. Heide,
    M. F. Herbst, D. L. Poole, T. Győri, E. C. Mitchell, J. P. Pederson,
    and A. M. Wallace

             Previous Authors, Complete List of Code Contributors,
                       and Citations for Specific Modules
    https://github.com/psi4/psi4/blob/master/codemeta.json
    https://github.com/psi4/psi4/graphs/contributors
    https://psicode.org/psi4manual/master/introduction.html#citing-psifour

    -----------------------------------------------------------------------


    Psi4 started on: Monday, 10 August 2026 06:35PM

    Process ID: 75599
    Host:       choehoyun-ui-MacBookAir.local
    PSIDATADIR: /Users/hoyoun/micromamba/envs/psi4env/share/psi4
    Memory:     500.0 MiB
    Threads:    8
    Addons:     a̶d̶c̶c̶, a̶m̶b̶i̶t̶, b̶s̶e̶, c̶c̶t̶3̶, c̶f̶o̶u̶r̶, c̶h̶e̶m̶p̶s̶2̶, c̶p̶p̶e̶, d̶d̶x̶, dftd3,
                d̶f̶t̶d̶4̶, dkh, ecpint, einsums, f̶o̶r̶t̶e̶, gauxc, g̶c̶p̶, g̶d̶m̶a̶,
                g̶e̶o̶m̶e̶t̶r̶i̶c̶, g̶p̶u̶_̶d̶f̶c̶c̶, i̶n̶t̶e̶g̶r̶a̶t̶o̶r̶x̶x̶, i̶p̶i̶,
                l̶i̶b̶e̶f̶p̶, m̶d̶i̶, m̶p̶2̶d̶, m̶r̶c̶c̶, ooo, o̶p̶e̶n̶f̶e̶r̶m̶i̶o̶n̶p̶s̶i̶4̶,
                pcmsolver, p̶s̶i̶4̶f̶o̶c̶k̶c̶i̶, p̶s̶i̶x̶a̶s̶, p̶y̶e̶i̶n̶s̶u̶m̶s̶, r̶e̶s̶p̶,
                s̶i̶m̶i̶n̶t̶, s̶n̶s̶m̶p̶2̶, v̶2̶r̶d̶m̶_̶c̶a̶s̶s̶c̶f̶

  ==> Input File <==

--------------------------------------------------------------------------
memory 3 GB
molecule mol {
0 1
N 0.68562840350664 -0.13383379696927 1.35697840497188
C -0.51328085288601 0.26749735832423 0.61128662127287
C -0.48402932782690 -0.33088458282451 -0.79966194739524
N 0.65154311936046 0.06259252344491 -1.63009290084163
H 0.63784587971370 -1.11371111481561 1.61607405635247
H 0.78869829417198 0.39961028271052 2.21168996018490
H 0.58468083486357 1.04487708560155 -1.87661214180024
H 1.50542632756764 -0.04554715035343 -1.09113982978310
H -1.45605714623265 -0.01862949192291 1.10448678092117
H -0.50925964513257 1.35936973950108 0.53579650160198
H -1.40822019041581 -0.06702668084910 -1.32162924290243
H -0.48297569669003 -1.42431417184745 -0.71717626258262
units angstrom
no_reorient
no_com
}
set basis def2-SVP
set scf_type df
set freeze_core true
set e_convergence 8
energy('b3lyp-d3bj')
--------------------------------------------------------------------------

  Memory set to   2.794 GiB by Python driver.

Scratch directory: /Users/hoyoun/Documents/Yonsei_AX_Camp/(진짜_이게_최종)/calibration/dft_work/_scratch/E17/
   => Libint2 <=

    Primary   basis highest AM E, G, H:  7, 6, 3
    Auxiliary basis highest AM E, G, H:  7, 7, 4
    Onebody   basis highest AM E, G, H:  -, -, -
    Solid Harmonics ordering:            Gaussian

*** tstart() called on choehoyun-ui-MacBookAir.local
*** at Mon Aug 10 18:35:26 2026

   => Loading Basis Set <=

    Name: DEF2-SVP
    Role: ORBITAL
    Keyword: BASIS
    atoms 1, 4 entry N          line   110 file /Users/hoyoun/micromamba/envs/psi4env/share/psi4/basis/def2-svp.gbs 
    atoms 2-3  entry C          line    90 file /Users/hoyoun/micromamba/envs/psi4env/share/psi4/basis/def2-svp.gbs 
    atoms 5-12 entry H          line    15 file /Users/hoyoun/micromamba/envs/psi4env/share/psi4/basis/def2-svp.gbs 

   => B3LYP-D3(BJ): Empirical Dispersion <=

    Grimme's -D3 (BJ-damping) Dispersion Correction
    Grimme S.; Ehrlich S.; Goerigk L. (2011), J. Comput. Chem., 32: 1456

        s6 =       1.000000
        s8 =       1.988900
        a1 =       0.398100
        a2 =       4.421100


         ---------------------------------------------------------
                                   SCF
               by Justin Turney, Rob Parrish, Andy Simmonett
                          and Daniel G. A. Smith
                              RKS Reference
                        8 Threads,   2861 MiB Core
         ---------------------------------------------------------

  ==> Geometry <==

    Molecular point group: c1
    Full point group: C1

    Geometry (in Angstrom), charge = 0, multiplicity = 1:

       Center              X                  Y                   Z               Mass       
    ------------   -----------------  -----------------  -----------------  -----------------
         N            0.685628403507    -0.133833796969     1.356978404972    14.003074004430
         C           -0.513280852886     0.267497358324     0.611286621273    12.000000000000
         C           -0.484029327827    -0.330884582825    -0.799661947395    12.000000000000
         N            0.651543119360     0.062592523445    -1.630092900842    14.003074004430
         H            0.637845879714    -1.113711114816     1.616074056352     1.007825032230
         H            0.788698294172     0.399610282711     2.211689960185     1.007825032230
         H            0.584680834864     1.044877085602    -1.876612141800     1.007825032230
         H            1.505426327568    -0.045547150353    -1.091139829783     1.007825032230
         H           -1.456057146233    -0.018629491923     1.104486780921     1.007825032230
         H           -0.509259645133     1.359369739501     0.535796501602     1.007825032230
         H           -1.408220190416    -0.067026680849    -1.321629242902     1.007825032230
         H           -0.482975696690    -1.424314171847    -0.717176262583     1.007825032230

  Running in c1 symmetry.

  Rotational constants: A =      0.47227  B =      0.16829  C =      0.14279 [cm^-1]
  Rotational constants: A =  14158.37260  B =   5045.33590  C =   4280.71498 [MHz]
  Nuclear repulsion =  133.945121138158925

  Charge       = 0
  Multiplicity = 1
  Electrons    = 34
  Nalpha       = 17
  Nbeta        = 17

  ==> Algorithm <==

  SCF Algorithm Type is DF.
  DIIS enabled.
  MOM disabled.
  Fractional occupation disabled.
  Guess Type is SAD.
  Energy threshold   = 1.00e-08
  Density threshold  = 1.00e-06
  Integral threshold = 1.00e-12

  ==> Primary Basis <==

  Basis Set: DEF2-SVP
    Blend: DEF2-SVP
    Number of shells: 48
    Number of basis functions: 96
    Number of Cartesian functions: 100
    Spherical Harmonics?: true
    Max angular momentum: 2

  ==> DFT Potential <==

   => LibXC <=

    Version 7.1.2
    S. Lehtola, C. Steigemann, M. J. T. Oliveira, and M. A. L. Marques,  SoftwareX 7, 1–5 (2018) (10.1016/j.softx.2017.11.002)

   => Composite Functional: B3LYP-D3BJ2B <= 

    B3LYP-d3bj2b Hyb-GGA Exchange-Correlation Functional

    P. J. Stephens, F. J. Devlin, C. F. Chabalowski, and M. J. Frisch,  J. Phys. Chem. 98, 11623 (1994) (10.1021/j100096a001)

    Deriv               =              1
    GGA                 =           TRUE
    Meta                =          FALSE

    Exchange Hybrid     =           TRUE
    MP2 Hybrid          =          FALSE

   => Exchange Functionals <=

    0.0800   Slater exchange
    0.7200         Becke 88

   => Exact (HF) Exchange <=

    0.2000               HF 

   => Correlation Functionals <=

    0.1900   Vosko, Wilk & Nusair (VWN5_RPA)
    0.8100   Lee, Yang & Parr

   => LibXC Density Thresholds  <==

    XC_HYB_GGA_XC_B3LYP:  1.00E-15 

   => Molecular Quadrature <=

    Radial Scheme          =       TREUTLER
    Pruning Scheme         =           NONE
    Nuclear Scheme         =       TREUTLER

    Blocking Scheme        =         OCTREE
    BS radius alpha        =              1
    Pruning alpha          =              1
    Radial Points          =             75
    Spherical Points       =            302
    Total Points           =         256186
    Total Blocks           =           1939
    Max Points             =            256
    Max Functions          =             96
    Weights Tolerance      =       1.00E-15

   => Loading Basis Set <=

    Name: (DEF2-SVP AUX)
    Role: JKFIT
    Keyword: DF_BASIS_SCF
    atoms 1, 4 entry N          line   258 file /Users/hoyoun/micromamba/envs/psi4env/share/psi4/basis/def2-universal-jkfit.gbs 
    atoms 2-3  entry C          line   198 file /Users/hoyoun/micromamba/envs/psi4env/share/psi4/basis/def2-universal-jkfit.gbs 
    atoms 5-12 entry H          line    18 file /Users/hoyoun/micromamba/envs/psi4env/share/psi4/basis/def2-universal-jkfit.gbs 

  ==> Integral Setup <==

  DFHelper Memory: AOs need 0.035 GiB; user supplied 1.486 GiB. 
  SCF_SUBTYPE=INCORE selected. In-core MEM_DF algorithm will be used.
  Using in-core AOs.

  ==> MemDFJK: Density-Fitted J/K Matrices <==

    J tasked:                   Yes
    K tasked:                   Yes
    wK tasked:                   No
    OpenMP threads:               8
    Memory [MiB]:              1521
    Algorithm:                 Core
    Schwarz Cutoff:           1E-12
    Mask sparsity (%):       0.3689
    Fitting Condition:        1E-10

   => Auxiliary Basis Set <=

  Basis Set: (DEF2-SVP AUX)
    Blend: DEF2-UNIVERSAL-JKFIT
    Number of shells: 148
    Number of basis functions: 448
    Number of Cartesian functions: 524
    Spherical Harmonics?: true
    Max angular momentum: 4

  Cached 100.0% of DFT collocation blocks in 0.609 [GiB].

  Minimum eigenvalue in the overlap matrix is 2.8697005239E-03.
  Reciprocal condition number of the overlap matrix is 4.6167207517E-04.
    Using symmetric orthogonalization.

  ==> Pre-Iterations <==

  SCF Guess: Superposition of Atomic Densities via on-the-fly atomic UHF (no occupation information).

   -------------------------
    Irrep   Nso     Nmo    
   -------------------------
     A         96      96 
   -------------------------
    Total      96      96
   -------------------------

  ==> Iterations <==

                           Total Energy        Delta E     RMS |[F,P]|

   @DF-RKS iter SAD:  -189.85815906220654   -1.89858e+02   0.00000e+00 
   @DF-RKS iter   1:  -189.95086321637058   -9.27042e-02   9.85602e-03 DIIS/ADIIS
   @DF-RKS iter   2:  -189.59870475378042    3.52158e-01   1.31698e-02 DIIS/ADIIS
   @DF-RKS iter   3:  -190.38874454617843   -7.90040e-01   6.73725e-04 DIIS/ADIIS
   @DF-RKS iter   4:  -190.39005528946998   -1.31074e-03   4.12508e-04 DIIS/ADIIS
   @DF-RKS iter   5:  -190.39075733277272   -7.02043e-04   1.10415e-04 DIIS/ADIIS
   @DF-RKS iter   6:  -190.39080868989933   -5.13571e-05   1.12605e-05 DIIS
   @DF-RKS iter   7:  -190.39080916994084   -4.80042e-07   3.99353e-06 DIIS
   @DF-RKS iter   8:  -190.39080923063275   -6.06919e-08   1.32185e-06 DIIS
   @DF-RKS iter   9:  -190.39080923753926   -6.90650e-09   2.00967e-07 DIIS
  Energy and wave function converged.


  ==> Post-Iterations <==

   Electrons on quadrature grid:
      Ntotal   =   34.0000098873 ; deviation = 9.887e-06 

    Orbital Energies [Eh]
    ---------------------

    Doubly Occupied:                                                      

       1A    -14.305827     2A    -14.287246     3A    -10.202442  
       4A    -10.197003     5A     -0.879914     6A     -0.842473  
       7A     -0.691778     8A     -0.589731     9A     -0.501159  
      10A     -0.475767    11A     -0.446845    12A     -0.415529  
      13A     -0.402615    14A     -0.358524    15A     -0.343298  
      16A     -0.240397    17A     -0.220525  

    Virtual:                                                              

      18A      0.049312    19A      0.081302    20A      0.096380  
      21A      0.103668    22A      0.135680    23A      0.141388  
      24A      0.152492    25A      0.180377    26A      0.229048  
      27A      0.232097    28A      0.265919    29A      0.432053  
      30A      0.468981    31A      0.478888    32A      0.485449  
      33A      0.522787    34A      0.597080    35A      0.620911  
      36A      0.637538    37A      0.654555    38A      0.665723  
      39A      0.671987    40A      0.684733    41A      0.701997  
      42A      0.707011    43A      0.731674    44A      0.801696  
      45A      0.810885    46A      0.850376    47A      0.869320  
      48A      0.876541    49A      0.973457    50A      1.089341  
      51A      1.111923    52A      1.201288    53A      1.224098  
      54A      1.241409    55A      1.346760    56A      1.387590  
      57A      1.416634    58A      1.498028    59A      1.642616  
      60A      1.719068    61A      1.742371    62A      1.753134  
      63A      1.776163    64A      1.786555    65A      1.798144  
      66A      1.814648    67A      1.855623    68A      1.865754  
      69A      1.886212    70A      1.896398    71A      1.943907  
      72A      1.947843    73A      2.064266    74A      2.102579  
      75A      2.109614    76A      2.181928    77A      2.204935  
      78A      2.264176    79A      2.344972    80A      2.468142  
      81A      2.478199    82A      2.500214    83A      2.655156  
      84A      2.700892    85A      2.760358    86A      2.779720  
      87A      2.846312    88A      2.866165    89A      2.910014  
      90A      2.989070    91A      3.050437    92A      3.096968  
      93A      3.202387    94A      3.235415    95A      3.404321  
      96A      3.417039  

    Final Occupation by Irrep:
              A 
    DOCC [    17 ]
    NA   [    17 ]
    NB   [    17 ]

  @DF-RKS Final Energy:  -190.39080923753926

   => Energetics <=

    Nuclear Repulsion Energy =            133.9451211381589246
    One-Electron Energy =                -521.7454300798901841
    Two-Electron Energy =                 219.8283004107052818
    DFT Exchange-Correlation Energy =     -22.4064220415249693
    Empirical Dispersion Energy =          -0.0123786649883316
    VV10 Nonlocal Energy =                  0.0000000000000000
    Total Energy =                       -190.3908092375392584

Computation Completed


Properties will be evaluated at   0.000000,   0.000000,   0.000000 [a0]

Properties computed using the SCF density matrix


 Multipole Moments:

 ------------------------------------------------------------------------------------
     Multipole            Electronic (a.u.)      Nuclear  (a.u.)        Total (a.u.)
 ------------------------------------------------------------------------------------

 L = 1.  Multiply by 2.5417464519 to convert [e a0] to [Debye]
 Dipole X            :         -6.0082118            5.7381122           -0.2700995
 Dipole Y            :          1.6387380           -1.4066814            0.2320565
 Dipole Z            :          5.6816762           -4.8765585            0.8051177
 Magnitude           :                                                    0.8803514

 ------------------------------------------------------------------------------------

*** tstop() called on choehoyun-ui-MacBookAir.local at Mon Aug 10 18:35:27 2026
Module time:
	user time   =       6.18 seconds =       0.10 minutes
	system time =       0.21 seconds =       0.00 minutes
	total time  =          1 seconds =       0.02 minutes
Total time:
	user time   =       6.18 seconds =       0.10 minutes
	system time =       0.21 seconds =       0.00 minutes
	total time  =          1 seconds =       0.02 minutes

    Psi4 stopped on: Monday, 10 August 2026 06:35PM
    Psi4 wall time for execution: 0:00:01.45

*** Psi4 exiting successfully. Buy a developer a beer!
