
    -----------------------------------------------------------------------
          Psi4: An Open-Source Ab Initio Electronic Structure Package
                               Psi4 1.11 release

                         Git: Rev {} zzzzzzz 


    D. G. A. Smith, L. A. Burns, A. C. Simmonett, R. M. Parrish,
    M. C. Schieber, R. Galvelis, P. Kraus, H. Kruse, R. Di Remigio,
    A. Alenaizan, A. M. James, S. Lehtola, J. P. Misiewicz, M. Scheurer,
    R. A. Shaw, J. B. Schriber, Y. Xie, Z. L. Glick, D. A. Sirianni,
    J. S. O'Brien, J. M. Waldrop, A. Kumar, E. G. Hohenstein,
    B. P. Pritchard, B. R. Brooks, H. F. Schaefer III, A. Yu. Sokolov,
    K. Patkowski, A. E. DePrince III, U. Bozkaya, R. A. King,
    F. A. Evangelista, J. M. Turney, T. D. Crawford, C. D. Sherrill,
    J. Chem. Phys. 152(18) 184108 (2020). https://doi.org/10.1063/5.0006002

                            Additional Code Authors
    E. T. Seidl, C. L. Janssen, E. F. Valeev, M. L. Leininger,
    J. F. Gonthier, R. M. Richard, H. R. McAlexander, M. Saitow, X. Wang,
    P. Verma, M. H. Lechner, A. Jiang, S. Behnle, A. G. Heide,
    M. F. Herbst, D. L. Poole, T. Győri, E. C. Mitchell, J. P. Pederson,
    and A. M. Wallace

             Previous Authors, Complete List of Code Contributors,
                       and Citations for Specific Modules
    https://github.com/psi4/psi4/blob/master/codemeta.json
    https://github.com/psi4/psi4/graphs/contributors
    https://psicode.org/psi4manual/master/introduction.html#citing-psifour

    -----------------------------------------------------------------------


    Psi4 started on: Sunday, 09 August 2026 02:27AM

    Process ID: 50081
    Host:       choehoyun-ui-MacBookAir.local
    PSIDATADIR: /Users/hoyoun/micromamba/envs/psi4env/share/psi4
    Memory:     500.0 MiB
    Threads:    8
    Addons:     a̶d̶c̶c̶, a̶m̶b̶i̶t̶, b̶s̶e̶, c̶c̶t̶3̶, c̶f̶o̶u̶r̶, c̶h̶e̶m̶p̶s̶2̶, c̶p̶p̶e̶, d̶d̶x̶, dftd3,
                d̶f̶t̶d̶4̶, dkh, ecpint, einsums, f̶o̶r̶t̶e̶, gauxc, g̶c̶p̶, g̶d̶m̶a̶,
                g̶e̶o̶m̶e̶t̶r̶i̶c̶, g̶p̶u̶_̶d̶f̶c̶c̶, i̶n̶t̶e̶g̶r̶a̶t̶o̶r̶x̶x̶, i̶p̶i̶,
                l̶i̶b̶e̶f̶p̶, m̶d̶i̶, m̶p̶2̶d̶, m̶r̶c̶c̶, ooo, o̶p̶e̶n̶f̶e̶r̶m̶i̶o̶n̶p̶s̶i̶4̶,
                pcmsolver, p̶s̶i̶4̶f̶o̶c̶k̶c̶i̶, p̶s̶i̶x̶a̶s̶, p̶y̶e̶i̶n̶s̶u̶m̶s̶, r̶e̶s̶p̶,
                s̶i̶m̶i̶n̶t̶, s̶n̶s̶m̶p̶2̶, v̶2̶r̶d̶m̶_̶c̶a̶s̶s̶c̶f̶

  ==> Input File <==

--------------------------------------------------------------------------
memory 3 GB
molecule mol {
0 1
N 1.29689850754188 -1.06724746111748 0.66787703355292
H 1.42765714538432 -1.36849416154829 1.61878992809372
C 0.10255097540763 -0.30045197371606 0.34265108848581
H -0.15026077835797 -0.54675239364360 -0.68806127564132
C -1.02640384029357 -0.69983565256192 1.27565424465719
C 0.41147597672210 1.19903877662371 0.44991771588630
H -0.76203763097658 -0.39827722413604 2.28941319201269
H -1.13014652176773 -1.78412567632006 1.24198119976202
C -2.34819703605930 -0.04700236118177 0.90823214614438
O 0.04677182552655 1.87878969099581 1.40620492292208
H -3.09990221412672 -0.24346564238208 1.67432369537551
H -2.25058992400608 1.03628196655697 0.85542537894352
C -2.90744104448448 -0.55693981232931 -0.39007587284239
O -4.01042996448786 0.13585146101073 -0.75678584826143
O -2.46645713703344 -1.47449307133920 -1.04515672795862
C 2.26803952596029 -1.31462342478630 -0.24476987772659
C 3.41074550500031 -2.17568999232812 0.22886424263137
O 2.21705621009337 -0.87927548023709 -1.39490552307472
H 3.42738418252242 -3.08193676022007 -0.37225707300694
H 3.34018282334332 -2.44522237672557 1.27953469060444
H 4.34282787161031 -1.64515049877291 0.05198197911377
N 1.12431096222673 1.66894109613048 -0.59668097241113
C 1.62912855264293 3.02447149979471 -0.61676202281723
H 1.49395585958275 0.97414022021774 -1.23569263345710
H 1.61021031130565 3.41010013399889 -1.63258364953103
H 0.98860307265027 3.63220520433178 0.01458744765489
H 2.64842222640415 3.08383053849642 -0.23432569741513
H -4.30453841027240 -0.26987662592760 -1.58620771634002
units angstrom
no_reorient
no_com
}
set basis def2-TZVP
set scf_type df
set freeze_core true
set e_convergence 8
energy('b3lyp-d3bj')
--------------------------------------------------------------------------

  Memory set to   2.794 GiB by Python driver.

Scratch directory: /Users/hoyoun/Documents/Yonsei_AX_Camp/(진짜_이게_최종)/calibration/dft_work/_scratch/GLU_xav/
   => Libint2 <=

    Primary   basis highest AM E, G, H:  7, 6, 3
    Auxiliary basis highest AM E, G, H:  7, 7, 4
    Onebody   basis highest AM E, G, H:  -, -, -
    Solid Harmonics ordering:            Gaussian

*** tstart() called on choehoyun-ui-MacBookAir.local
*** at Sun Aug  9 02:27:34 2026

   => Loading Basis Set <=

    Name: DEF2-TZVP
    Role: ORBITAL
    Keyword: BASIS
    atoms 1, 22                          entry N          line   156 file /Users/hoyoun/micromamba/envs/psi4env/share/psi4/basis/def2-tzvp.gbs 
    atoms 2, 4, 7-8, 11-12, 19-21, 24-28 entry H          line    15 file /Users/hoyoun/micromamba/envs/psi4env/share/psi4/basis/def2-tzvp.gbs 
    atoms 3, 5-6, 9, 13, 16-17, 23       entry C          line   123 file /Users/hoyoun/micromamba/envs/psi4env/share/psi4/basis/def2-tzvp.gbs 
    atoms 10, 14-15, 18                  entry O          line   189 file /Users/hoyoun/micromamba/envs/psi4env/share/psi4/basis/def2-tzvp.gbs 

   => B3LYP-D3(BJ): Empirical Dispersion <=

    Grimme's -D3 (BJ-damping) Dispersion Correction
    Grimme S.; Ehrlich S.; Goerigk L. (2011), J. Comput. Chem., 32: 1456

        s6 =       1.000000
        s8 =       1.988900
        a1 =       0.398100
        a2 =       4.421100


         ---------------------------------------------------------
                                   SCF
               by Justin Turney, Rob Parrish, Andy Simmonett
                          and Daniel G. A. Smith
                              RKS Reference
                        8 Threads,   2861 MiB Core
         ---------------------------------------------------------

  ==> Geometry <==

    Molecular point group: c1
    Full point group: C1

    Geometry (in Angstrom), charge = 0, multiplicity = 1:

       Center              X                  Y                   Z               Mass       
    ------------   -----------------  -----------------  -----------------  -----------------
         N            1.296898507542    -1.067247461117     0.667877033553    14.003074004430
         H            1.427657145384    -1.368494161548     1.618789928094     1.007825032230
         C            0.102550975408    -0.300451973716     0.342651088486    12.000000000000
         H           -0.150260778358    -0.546752393644    -0.688061275641     1.007825032230
         C           -1.026403840294    -0.699835652562     1.275654244657    12.000000000000
         C            0.411475976722     1.199038776624     0.449917715886    12.000000000000
         H           -0.762037630977    -0.398277224136     2.289413192013     1.007825032230
         H           -1.130146521768    -1.784125676320     1.241981199762     1.007825032230
         C           -2.348197036059    -0.047002361182     0.908232146144    12.000000000000
         O            0.046771825527     1.878789690996     1.406204922922    15.994914619570
         H           -3.099902214127    -0.243465642382     1.674323695376     1.007825032230
         H           -2.250589924006     1.036281966557     0.855425378944     1.007825032230
         C           -2.907441044484    -0.556939812329    -0.390075872842    12.000000000000
         O           -4.010429964488     0.135851461011    -0.756785848261    15.994914619570
         O           -2.466457137033    -1.474493071339    -1.045156727959    15.994914619570
         C            2.268039525960    -1.314623424786    -0.244769877727    12.000000000000
         C            3.410745505000    -2.175689992328     0.228864242631    12.000000000000
         O            2.217056210093    -0.879275480237    -1.394905523075    15.994914619570
         H            3.427384182522    -3.081936760220    -0.372257073007     1.007825032230
         H            3.340182823343    -2.445222376726     1.279534690604     1.007825032230
         H            4.342827871610    -1.645150498773     0.051981979114     1.007825032230
         N            1.124310962227     1.668941096130    -0.596680972411    14.003074004430
         C            1.629128552643     3.024471499795    -0.616762022817    12.000000000000
         H            1.493955859583     0.974140220218    -1.235692633457     1.007825032230
         H            1.610210311306     3.410100133999    -1.632583649531     1.007825032230
         H            0.988603072650     3.632205204332     0.014587447655     1.007825032230
         H            2.648422226404     3.083830538496    -0.234325697415     1.007825032230
         H           -4.304538410272    -0.269876625928    -1.586207716340     1.007825032230

  Running in c1 symmetry.

  Rotational constants: A =      0.02818  B =      0.01472  C =      0.01188 [cm^-1]
  Rotational constants: A =    844.78370  B =    441.36045  C =    356.22714 [MHz]
  Nuclear repulsion =  953.428682374055370

  Charge       = 0
  Multiplicity = 1
  Electrons    = 108
  Nalpha       = 54
  Nbeta        = 54

  ==> Algorithm <==

  SCF Algorithm Type is DF.
  DIIS enabled.
  MOM disabled.
  Fractional occupation disabled.
  Guess Type is SAD.
  Energy threshold   = 1.00e-08
  Density threshold  = 1.00e-06
  Integral threshold = 1.00e-12

  ==> Primary Basis <==

  Basis Set: DEF2-TZVP
    Blend: DEF2-TZVP
    Number of shells: 210
    Number of basis functions: 518
    Number of Cartesian functions: 588
    Spherical Harmonics?: true
    Max angular momentum: 3

  ==> DFT Potential <==

   => LibXC <=

    Version 7.1.2
    S. Lehtola, C. Steigemann, M. J. T. Oliveira, and M. A. L. Marques,  SoftwareX 7, 1–5 (2018) (10.1016/j.softx.2017.11.002)

   => Composite Functional: B3LYP-D3BJ2B <= 

    B3LYP-d3bj2b Hyb-GGA Exchange-Correlation Functional

    P. J. Stephens, F. J. Devlin, C. F. Chabalowski, and M. J. Frisch,  J. Phys. Chem. 98, 11623 (1994) (10.1021/j100096a001)

    Deriv               =              1
    GGA                 =           TRUE
    Meta                =          FALSE

    Exchange Hybrid     =           TRUE
    MP2 Hybrid          =          FALSE

   => Exchange Functionals <=

    0.0800   Slater exchange
    0.7200         Becke 88

   => Exact (HF) Exchange <=

    0.2000               HF 

   => Correlation Functionals <=

    0.1900   Vosko, Wilk & Nusair (VWN5_RPA)
    0.8100   Lee, Yang & Parr

   => LibXC Density Thresholds  <==

    XC_HYB_GGA_XC_B3LYP:  1.00E-15 

   => Molecular Quadrature <=

    Radial Scheme          =       TREUTLER
    Pruning Scheme         =           NONE
    Nuclear Scheme         =       TREUTLER

    Blocking Scheme        =         OCTREE
    BS radius alpha        =              1
    Pruning alpha          =              1
    Radial Points          =             75
    Spherical Points       =            302
    Total Points           =         583087
    Total Blocks           =           4214
    Max Points             =            256
    Max Functions          =            399
    Weights Tolerance      =       1.00E-15

   => Loading Basis Set <=

    Name: (DEF2-TZVP AUX)
    Role: JKFIT
    Keyword: DF_BASIS_SCF
    atoms 1, 22                          entry N          line   258 file /Users/hoyoun/micromamba/envs/psi4env/share/psi4/basis/def2-universal-jkfit.gbs 
    atoms 2, 4, 7-8, 11-12, 19-21, 24-28 entry H          line    18 file /Users/hoyoun/micromamba/envs/psi4env/share/psi4/basis/def2-universal-jkfit.gbs 
    atoms 3, 5-6, 9, 13, 16-17, 23       entry C          line   198 file /Users/hoyoun/micromamba/envs/psi4env/share/psi4/basis/def2-universal-jkfit.gbs 
    atoms 10, 14-15, 18                  entry O          line   318 file /Users/hoyoun/micromamba/envs/psi4env/share/psi4/basis/def2-universal-jkfit.gbs 

  ==> Integral Setup <==

  ==> DiskDFJK: Density-Fitted J/K Matrices <==

    J tasked:                  Yes
    K tasked:                  Yes
    wK tasked:                  No
    OpenMP threads:              8
    Integrals threads:           8
    Memory [MiB]:             1162
    Algorithm:                Disk
    Integral Cache:           NONE
    Schwarz Cutoff:          1E-12
    Fitting Condition:       1E-10

   => Auxiliary Basis Set <=

  Basis Set: (DEF2-TZVP AUX)
    Blend: DEF2-UNIVERSAL-JKFIT
    Number of shells: 434
    Number of basis functions: 1314
    Number of Cartesian functions: 1550
    Spherical Harmonics?: true
    Max angular momentum: 4

  Cached 20.0% of DFT collocation blocks in 0.868 [GiB].

  Minimum eigenvalue in the overlap matrix is 6.5222902541E-05.
  Reciprocal condition number of the overlap matrix is 6.2989115547E-06.
    Using symmetric orthogonalization.

  ==> Pre-Iterations <==

  SCF Guess: Superposition of Atomic Densities via on-the-fly atomic UHF (no occupation information).

   -------------------------
    Irrep   Nso     Nmo    
   -------------------------
     A        518     518 
   -------------------------
    Total     518     518
   -------------------------

  ==> Iterations <==

                           Total Energy        Delta E     RMS |[F,P]|

   @DF-RKS iter SAD:  -723.17072819947430   -7.23171e+02   0.00000e+00 
   @DF-RKS iter   1:  -722.97685131239905    1.93877e-01   3.13552e-03 DIIS/ADIIS
   @DF-RKS iter   2:  -722.31600334513735    6.60848e-01   3.90984e-03 DIIS/ADIIS
   @DF-RKS iter   3:  -724.04235668398951   -1.72635e+00   6.90005e-04 DIIS/ADIIS
   @DF-RKS iter   4:  -724.07917860128464   -3.68219e-02   3.22177e-04 DIIS/ADIIS
   @DF-RKS iter   5:  -724.08891085186860   -9.73225e-03   9.47486e-05 DIIS
   @DF-RKS iter   6:  -724.08979849148034   -8.87640e-04   2.19390e-05 DIIS
   @DF-RKS iter   7:  -724.08985001105498   -5.15196e-05   5.39234e-06 DIIS
   @DF-RKS iter   8:  -724.08985283957372   -2.82852e-06   2.03106e-06 DIIS
   @DF-RKS iter   9:  -724.08985320820261   -3.68629e-07   8.82233e-07 DIIS
   @DF-RKS iter  10:  -724.08985328064466   -7.24420e-08   2.78420e-07 DIIS
   @DF-RKS iter  11:  -724.08985328823235   -7.58769e-09   7.81974e-08 DIIS
  Energy and wave function converged.


  ==> Post-Iterations <==

   Electrons on quadrature grid:
      Ntotal   =  107.9999700921 ; deviation = -2.991e-05 

    Orbital Energies [Eh]
    ---------------------

    Doubly Occupied:                                                      

       1A    -19.182254     2A    -19.125170     3A    -19.103497  
       4A    -19.091364     5A    -14.359555     6A    -14.334698  
       7A    -10.313106     8A    -10.287667     9A    -10.267866  
      10A    -10.222715    11A    -10.197522    12A    -10.191479  
      13A    -10.187530    14A    -10.184425    15A     -1.118477  
      16A     -1.053022    17A     -1.035671    18A     -1.028168  
      19A     -0.945450    20A     -0.921842    21A     -0.821297  
      22A     -0.771407    23A     -0.733561    24A     -0.709476  
      25A     -0.652507    26A     -0.614200    27A     -0.586876  
      28A     -0.579189    29A     -0.546143    30A     -0.522816  
      31A     -0.505161    32A     -0.497450    33A     -0.493756  
      34A     -0.477493    35A     -0.467337    36A     -0.459143  
      37A     -0.449051    38A     -0.433840    39A     -0.424659  
      40A     -0.419900    41A     -0.413328    42A     -0.411328  
      43A     -0.393265    44A     -0.389586    45A     -0.377648  
      46A     -0.373238    47A     -0.366740    48A     -0.360471  
      49A     -0.335726    50A     -0.294964    51A     -0.292161  
      52A     -0.275300    53A     -0.260726    54A     -0.250718  

    Virtual:                                                              

      55A     -0.009264    56A     -0.001866    57A      0.012669  
      58A      0.021509    59A      0.027499    60A      0.045751  
      61A      0.051759    62A      0.065161    63A      0.081727  
      64A      0.086428    65A      0.092607    66A      0.104295  
      67A      0.106653    68A      0.116309    69A      0.121121  
      70A      0.128637    71A      0.135391    72A      0.143144  
      73A      0.148648    74A      0.161640    75A      0.166796  
      76A      0.174626    77A      0.180168    78A      0.189055  
      79A      0.192930    80A      0.198068    81A      0.207347  
      82A      0.209855    83A      0.218587    84A      0.223395  
      85A      0.228548    86A      0.240985    87A      0.255202  
      88A      0.263616    89A      0.279130    90A      0.285300  
      91A      0.295585    92A      0.305742    93A      0.307487  
      94A      0.319768    95A      0.326983    96A      0.341965  
      97A      0.346706    98A      0.358856    99A      0.363696  
     100A      0.374932   101A      0.375979   102A      0.382306  
     103A      0.386399   104A      0.393115   105A      0.395814  
     106A      0.404251   107A      0.408429   108A      0.416017  
     109A      0.418329   110A      0.420445   111A      0.429716  
     112A      0.442026   113A      0.444018   114A      0.447561  
     115A      0.448715   116A      0.455170   117A      0.465248  
     118A      0.467163   119A      0.474568   120A      0.480886  
     121A      0.493763   122A      0.494633   123A      0.501851  
     124A      0.505479   125A      0.512228   126A      0.518920  
     127A      0.524434   128A      0.534541   129A      0.544817  
     130A      0.556263   131A      0.563708   132A      0.567673  
     133A      0.577230   134A      0.585343   135A      0.598066  
     136A      0.607682   137A      0.616170   138A      0.628883  
     139A      0.633909   140A      0.648398   141A      0.651981  
     142A      0.659788   143A      0.685712   144A      0.700987  
     145A      0.707355   146A      0.715632   147A      0.733584  
     148A      0.746463   149A      0.760411   150A      0.767801  
     151A      0.785732   152A      0.798087   153A      0.801808  
     154A      0.813570   155A      0.833900   156A      0.841318  
     157A      0.855889   158A      0.872070   159A      0.877889  
     160A      0.882364   161A      0.905497   162A      0.913276  
     163A      0.922990   164A      0.931988   165A      0.941732  
     166A      0.950123   167A      0.971309   168A      0.979304  
     169A      0.986784   170A      1.003878   171A      1.014375  
     172A      1.027367   173A      1.039280   174A      1.047583  
     175A      1.061202   176A      1.071759   177A      1.079174  
     178A      1.095411   179A      1.103708   180A      1.114144  
     181A      1.134057   182A      1.163766   183A      1.174913  
     184A      1.197067   185A      1.210290   186A      1.221812  
     187A      1.240649   188A      1.258479   189A      1.279644  
     190A      1.285214   191A      1.321862   192A      1.328139  
     193A      1.338851   194A      1.361197   195A      1.361461  
     196A      1.384101   197A      1.400881   198A      1.417161  
     199A      1.437886   200A      1.438188   201A      1.450231  
     202A      1.458064   203A      1.467620   204A      1.481841  
     205A      1.489601   206A      1.494222   207A      1.501659  
     208A      1.507736   209A      1.516155   210A      1.522228  
     211A      1.524264   212A      1.534937   213A      1.543554  
     214A      1.554624   215A      1.572560   216A      1.580038  
     217A      1.590170   218A      1.600316   219A      1.603204  
     220A      1.611127   221A      1.614721   222A      1.623296  
     223A      1.633609   224A      1.659986   225A      1.679025  
     226A      1.686305   227A      1.699161   228A      1.731911  
     229A      1.739294   230A      1.760213   231A      1.764091  
     232A      1.778447   233A      1.799994   234A      1.810489  
     235A      1.829295   236A      1.838984   237A      1.845422  
     238A      1.852096   239A      1.859894   240A      1.892196  
     241A      1.900958   242A      1.921792   243A      1.930685  
     244A      1.934936   245A      1.945330   246A      1.950320  
     247A      1.966294   248A      1.977086   249A      1.988119  
     250A      2.003236   251A      2.008444   252A      2.019948  
     253A      2.033202   254A      2.056439   255A      2.074493  
     256A      2.083041   257A      2.111448   258A      2.115896  
     259A      2.119797   260A      2.126537   261A      2.151368  
     262A      2.178538   263A      2.183804   264A      2.190704  
     265A      2.196118   266A      2.210044   267A      2.220347  
     268A      2.231423   269A      2.242295   270A      2.264584  
     271A      2.271152   272A      2.275331   273A      2.291157  
     274A      2.309394   275A      2.321818   276A      2.332141  
     277A      2.335932   278A      2.346335   279A      2.365834  
     280A      2.375401   281A      2.381542   282A      2.390547  
     283A      2.412715   284A      2.433118   285A      2.456231  
     286A      2.470003   287A      2.478413   288A      2.482904  
     289A      2.514434   290A      2.531027   291A      2.533584  
     292A      2.537297   293A      2.547631   294A      2.569237  
     295A      2.573753   296A      2.585016   297A      2.593625  
     298A      2.615731   299A      2.620489   300A      2.638954  
     301A      2.649489   302A      2.664065   303A      2.676682  
     304A      2.685799   305A      2.709713   306A      2.717404  
     307A      2.724558   308A      2.735587   309A      2.745981  
     310A      2.765832   311A      2.781803   312A      2.796170  
     313A      2.819955   314A      2.825069   315A      2.843586  
     316A      2.860189   317A      2.865109   318A      2.869983  
     319A      2.908345   320A      2.911063   321A      2.923211  
     322A      2.926781   323A      2.955195   324A      2.963027  
     325A      2.980229   326A      2.990855   327A      2.999371  
     328A      3.009214   329A      3.031820   330A      3.038162  
     331A      3.050126   332A      3.056053   333A      3.072134  
     334A      3.084406   335A      3.089680   336A      3.092925  
     337A      3.111734   338A      3.129160   339A      3.142745  
     340A      3.151088   341A      3.157830   342A      3.163863  
     343A      3.167558   344A      3.180933   345A      3.195902  
     346A      3.204548   347A      3.210006   348A      3.229369  
     349A      3.236147   350A      3.243224   351A      3.253533  
     352A      3.256676   353A      3.269471   354A      3.284353  
     355A      3.293087   356A      3.302024   357A      3.304447  
     358A      3.322792   359A      3.330358   360A      3.337937  
     361A      3.360605   362A      3.363688   363A      3.384741  
     364A      3.391549   365A      3.405481   366A      3.419747  
     367A      3.429696   368A      3.433967   369A      3.447246  
     370A      3.466471   371A      3.476313   372A      3.485930  
     373A      3.508813   374A      3.522481   375A      3.537179  
     376A      3.543460   377A      3.549476   378A      3.555380  
     379A      3.584988   380A      3.606211   381A      3.622418  
     382A      3.644427   383A      3.651802   384A      3.688249  
     385A      3.692458   386A      3.720791   387A      3.742997  
     388A      3.752202   389A      3.786108   390A      3.802102  
     391A      3.816782   392A      3.826529   393A      3.852984  
     394A      3.862040   395A      3.874923   396A      3.890666  
     397A      3.915408   398A      3.932758   399A      3.954471  
     400A      3.978693   401A      4.001869   402A      4.026393  
     403A      4.030899   404A      4.073659   405A      4.114265  
     406A      4.125167   407A      4.145050   408A      4.164000  
     409A      4.175740   410A      4.215992   411A      4.231947  
     412A      4.261509   413A      4.291513   414A      4.325501  
     415A      4.346920   416A      4.358480   417A      4.379119  
     418A      4.412705   419A      4.417617   420A      4.421830  
     421A      4.435770   422A      4.466435   423A      4.497265  
     424A      4.524442   425A      4.574556   426A      4.590909  
     427A      4.615935   428A      4.671787   429A      4.679935  
     430A      4.743106   431A      4.747650   432A      4.763887  
     433A      4.801614   434A      4.844049   435A      4.864191  
     436A      4.889120   437A      4.927608   438A      4.955847  
     439A      5.026160   440A      5.057541   441A      5.066476  
     442A      5.089989   443A      5.114971   444A      5.139708  
     445A      5.151409   446A      5.180203   447A      5.187619  
     448A      5.195643   449A      5.200176   450A      5.209525  
     451A      5.225715   452A      5.258930   453A      5.277962  
     454A      5.303014   455A      5.355416   456A      5.371520  
     457A      5.402864   458A      5.418670   459A      5.428758  
     460A      5.488432   461A      5.489760   462A      5.513713  
     463A      5.580959   464A      5.586234   465A      5.625300  
     466A      5.650987   467A      5.698685   468A      5.762914  
     469A      5.804144   470A      5.846136   471A      5.855625  
     472A      5.873075   473A      5.908872   474A      5.933795  
     475A      6.090658   476A      6.166294   477A      6.171601  
     478A      6.200065   479A      6.311705   480A      6.323666  
     481A      6.344943   482A      6.356036   483A      6.428343  
     484A      6.439593   485A      6.479934   486A      6.487151  
     487A      6.559432   488A      6.578913   489A      6.658844  
     490A      6.684042   491A      6.697118   492A      6.723954  
     493A      6.756742   494A      6.822846   495A      6.830676  
     496A      6.860347   497A      6.888935   498A      7.067201  
     499A      7.082209   500A      7.085572   501A      7.093723  
     502A      7.110791   503A      7.124763   504A      7.299506  
     505A     22.310538   506A     22.405700   507A     22.517116  
     508A     22.555819   509A     22.718860   510A     23.207033  
     511A     23.283757   512A     23.387407   513A     32.420533  
     514A     32.534822   515A     43.779781   516A     43.852940  
     517A     43.909897   518A     43.987312  

    Final Occupation by Irrep:
              A 
    DOCC [    54 ]
    NA   [    54 ]
    NB   [    54 ]

  @DF-RKS Final Energy:  -724.08985328823235

   => Energetics <=

    Nuclear Repulsion Energy =            953.4286823740553700
    One-Electron Energy =               -2880.2961216595581391
    Two-Electron Energy =                1281.3592773837458481
    DFT Exchange-Correlation Energy =     -78.5340934574365264
    Empirical Dispersion Energy =          -0.0475979290388171
    VV10 Nonlocal Energy =                  0.0000000000000000
    Total Energy =                       -724.0898532882322343

Computation Completed


Properties will be evaluated at   0.000000,   0.000000,   0.000000 [a0]

Properties computed using the SCF density matrix


 Multipole Moments:

 ------------------------------------------------------------------------------------
     Multipole            Electronic (a.u.)      Nuclear  (a.u.)        Total (a.u.)
 ------------------------------------------------------------------------------------

 L = 1.  Multiply by 2.5417464519 to convert [e a0] to [Debye]
 Dipole X            :          0.1690674            0.1231222            0.2921896
 Dipole Y            :          5.8965371           -6.3761338           -0.4795967
 Dipole Z            :         -1.6903707            2.2155271            0.5251564
 Magnitude           :                                                    0.7688803

 ------------------------------------------------------------------------------------

*** tstop() called on choehoyun-ui-MacBookAir.local at Sun Aug  9 02:28:21 2026
Module time:
	user time   =     301.31 seconds =       5.02 minutes
	system time =       6.79 seconds =       0.11 minutes
	total time  =         47 seconds =       0.78 minutes
Total time:
	user time   =     301.31 seconds =       5.02 minutes
	system time =       6.79 seconds =       0.11 minutes
	total time  =         47 seconds =       0.78 minutes

    Psi4 stopped on: Sunday, 09 August 2026 02:28AM
    Psi4 wall time for execution: 0:00:47.24

*** Psi4 exiting successfully. Buy a developer a beer!
