
    -----------------------------------------------------------------------
          Psi4: An Open-Source Ab Initio Electronic Structure Package
                               Psi4 1.11 release

                         Git: Rev {} zzzzzzz 


    D. G. A. Smith, L. A. Burns, A. C. Simmonett, R. M. Parrish,
    M. C. Schieber, R. Galvelis, P. Kraus, H. Kruse, R. Di Remigio,
    A. Alenaizan, A. M. James, S. Lehtola, J. P. Misiewicz, M. Scheurer,
    R. A. Shaw, J. B. Schriber, Y. Xie, Z. L. Glick, D. A. Sirianni,
    J. S. O'Brien, J. M. Waldrop, A. Kumar, E. G. Hohenstein,
    B. P. Pritchard, B. R. Brooks, H. F. Schaefer III, A. Yu. Sokolov,
    K. Patkowski, A. E. DePrince III, U. Bozkaya, R. A. King,
    F. A. Evangelista, J. M. Turney, T. D. Crawford, C. D. Sherrill,
    J. Chem. Phys. 152(18) 184108 (2020). https://doi.org/10.1063/5.0006002

                            Additional Code Authors
    E. T. Seidl, C. L. Janssen, E. F. Valeev, M. L. Leininger,
    J. F. Gonthier, R. M. Richard, H. R. McAlexander, M. Saitow, X. Wang,
    P. Verma, M. H. Lechner, A. Jiang, S. Behnle, A. G. Heide,
    M. F. Herbst, D. L. Poole, T. Győri, E. C. Mitchell, J. P. Pederson,
    and A. M. Wallace

             Previous Authors, Complete List of Code Contributors,
                       and Citations for Specific Modules
    https://github.com/psi4/psi4/blob/master/codemeta.json
    https://github.com/psi4/psi4/graphs/contributors
    https://psicode.org/psi4manual/master/introduction.html#citing-psifour

    -----------------------------------------------------------------------


    Psi4 started on: Sunday, 09 August 2026 01:26AM

    Process ID: 42229
    Host:       choehoyun-ui-MacBookAir.local
    PSIDATADIR: /Users/hoyoun/micromamba/envs/psi4env/share/psi4
    Memory:     500.0 MiB
    Threads:    1
    Addons:     a̶d̶c̶c̶, a̶m̶b̶i̶t̶, b̶s̶e̶, c̶c̶t̶3̶, c̶f̶o̶u̶r̶, c̶h̶e̶m̶p̶s̶2̶, c̶p̶p̶e̶, d̶d̶x̶, dftd3,
                d̶f̶t̶d̶4̶, dkh, ecpint, einsums, f̶o̶r̶t̶e̶, gauxc, g̶c̶p̶, g̶d̶m̶a̶,
                g̶e̶o̶m̶e̶t̶r̶i̶c̶, g̶p̶u̶_̶d̶f̶c̶c̶, i̶n̶t̶e̶g̶r̶a̶t̶o̶r̶x̶x̶, i̶p̶i̶,
                l̶i̶b̶e̶f̶p̶, m̶d̶i̶, m̶p̶2̶d̶, m̶r̶c̶c̶, ooo, o̶p̶e̶n̶f̶e̶r̶m̶i̶o̶n̶p̶s̶i̶4̶,
                pcmsolver, p̶s̶i̶4̶f̶o̶c̶k̶c̶i̶, p̶s̶i̶x̶a̶s̶, p̶y̶e̶i̶n̶s̶u̶m̶s̶, r̶e̶s̶p̶,
                s̶i̶m̶i̶n̶t̶, s̶n̶s̶m̶p̶2̶, v̶2̶r̶d̶m̶_̶c̶a̶s̶s̶c̶f̶

  ==> Input File <==

--------------------------------------------------------------------------
memory 6 GB
molecule mol {
0 1
C -1.12325363486976 0.36103318290309 -0.03955921402842
C -0.02548247093556 -0.62868888716506 0.41684315250686
C 1.04141698402445 0.40716118383862 -0.06359687349210
C -0.06345831475469 1.49399804188181 -0.00246345927070
N -0.10010763309770 -1.98259244070614 -0.09364800594532
H -2.01482127894488 0.45523205128679 0.58162477940806
H -1.43372662970256 0.14207440177100 -1.06508646590794
H -0.01195496191542 -0.68547687247904 1.50888740932963
H 1.34088739943615 0.19974352740938 -1.09488794367792
H 1.93854193427577 0.54366625692263 0.54369154106754
H -0.06442837926986 2.01793825762838 0.95509276421429
H -0.08819301076552 2.23344143900370 -0.80298381932006
H -0.04743912677826 -1.99577214953527 -1.10690243767701
H 0.65201912329784 -2.56175799275991 0.26298857279305
units angstrom
no_reorient
no_com
}
set basis def2-TZVP
set scf_type df
set freeze_core true
energy('b3lyp-d3bj')
--------------------------------------------------------------------------

  Memory set to   5.588 GiB by Python driver.

Scratch directory: /tmp/
   => Libint2 <=

    Primary   basis highest AM E, G, H:  7, 6, 3
    Auxiliary basis highest AM E, G, H:  7, 7, 4
    Onebody   basis highest AM E, G, H:  -, -, -
    Solid Harmonics ordering:            Gaussian

*** tstart() called on choehoyun-ui-MacBookAir.local
*** at Sun Aug  9 01:26:18 2026

   => Loading Basis Set <=

    Name: DEF2-TZVP
    Role: ORBITAL
    Keyword: BASIS
    atoms 1-4  entry C          line   123 file /Users/hoyoun/micromamba/envs/psi4env/share/psi4/basis/def2-tzvp.gbs 
    atoms 5    entry N          line   156 file /Users/hoyoun/micromamba/envs/psi4env/share/psi4/basis/def2-tzvp.gbs 
    atoms 6-14 entry H          line    15 file /Users/hoyoun/micromamba/envs/psi4env/share/psi4/basis/def2-tzvp.gbs 

   => B3LYP-D3(BJ): Empirical Dispersion <=

    Grimme's -D3 (BJ-damping) Dispersion Correction
    Grimme S.; Ehrlich S.; Goerigk L. (2011), J. Comput. Chem., 32: 1456

        s6 =       1.000000
        s8 =       1.988900
        a1 =       0.398100
        a2 =       4.421100


         ---------------------------------------------------------
                                   SCF
               by Justin Turney, Rob Parrish, Andy Simmonett
                          and Daniel G. A. Smith
                              RKS Reference
                        1 Threads,   5722 MiB Core
         ---------------------------------------------------------

  ==> Geometry <==

    Molecular point group: c1
    Full point group: C1

    Geometry (in Angstrom), charge = 0, multiplicity = 1:

       Center              X                  Y                   Z               Mass       
    ------------   -----------------  -----------------  -----------------  -----------------
         C           -1.123253634870     0.361033182903    -0.039559214028    12.000000000000
         C           -0.025482470936    -0.628688887165     0.416843152507    12.000000000000
         C            1.041416984024     0.407161183839    -0.063596873492    12.000000000000
         C           -0.063458314755     1.493998041882    -0.002463459271    12.000000000000
         N           -0.100107633098    -1.982592440706    -0.093648005945    14.003074004430
         H           -2.014821278945     0.455232051287     0.581624779408     1.007825032230
         H           -1.433726629703     0.142074401771    -1.065086465908     1.007825032230
         H           -0.011954961915    -0.685476872479     1.508887409330     1.007825032230
         H            1.340887399436     0.199743527409    -1.094887943678     1.007825032230
         H            1.938541934276     0.543666256923     0.543691541068     1.007825032230
         H           -0.064428379270     2.017938257628     0.955092764214     1.007825032230
         H           -0.088193010766     2.233441439004    -0.802983819320     1.007825032230
         H           -0.047439126778    -1.995772149535    -1.106902437677     1.007825032230
         H            0.652019123298    -2.561757992760     0.262988572793     1.007825032230

  Running in c1 symmetry.

  Rotational constants: A =      0.33062  B =      0.13891  C =      0.11129 [cm^-1]
  Rotational constants: A =   9911.69042  B =   4164.36741  C =   3336.27094 [MHz]
  Nuclear repulsion =  185.012970548125480

  Charge       = 0
  Multiplicity = 1
  Electrons    = 40
  Nalpha       = 20
  Nbeta        = 20

  ==> Algorithm <==

  SCF Algorithm Type is DF.
  DIIS enabled.
  MOM disabled.
  Fractional occupation disabled.
  Guess Type is SAD.
  Energy threshold   = 1.00e-06
  Density threshold  = 1.00e-06
  Integral threshold = 1.00e-12

  ==> Primary Basis <==

  Basis Set: DEF2-TZVP
    Blend: DEF2-TZVP
    Number of shells: 91
    Number of basis functions: 209
    Number of Cartesian functions: 234
    Spherical Harmonics?: true
    Max angular momentum: 3

  ==> DFT Potential <==

   => LibXC <=

    Version 7.1.2
    S. Lehtola, C. Steigemann, M. J. T. Oliveira, and M. A. L. Marques,  SoftwareX 7, 1–5 (2018) (10.1016/j.softx.2017.11.002)

   => Composite Functional: B3LYP-D3BJ2B <= 

    B3LYP-d3bj2b Hyb-GGA Exchange-Correlation Functional

    P. J. Stephens, F. J. Devlin, C. F. Chabalowski, and M. J. Frisch,  J. Phys. Chem. 98, 11623 (1994) (10.1021/j100096a001)

    Deriv               =              1
    GGA                 =           TRUE
    Meta                =          FALSE

    Exchange Hybrid     =           TRUE
    MP2 Hybrid          =          FALSE

   => Exchange Functionals <=

    0.0800   Slater exchange
    0.7200         Becke 88

   => Exact (HF) Exchange <=

    0.2000               HF 

   => Correlation Functionals <=

    0.1900   Vosko, Wilk & Nusair (VWN5_RPA)
    0.8100   Lee, Yang & Parr

   => LibXC Density Thresholds  <==

    XC_HYB_GGA_XC_B3LYP:  1.00E-15 

   => Molecular Quadrature <=

    Radial Scheme          =       TREUTLER
    Pruning Scheme         =           NONE
    Nuclear Scheme         =       TREUTLER

    Blocking Scheme        =         OCTREE
    BS radius alpha        =              1
    Pruning alpha          =              1
    Radial Points          =             75
    Spherical Points       =            302
    Total Points           =         297359
    Total Blocks           =           2246
    Max Points             =            256
    Max Functions          =            206
    Weights Tolerance      =       1.00E-15

   => Loading Basis Set <=

    Name: (DEF2-TZVP AUX)
    Role: JKFIT
    Keyword: DF_BASIS_SCF
    atoms 1-4  entry C          line   198 file /Users/hoyoun/micromamba/envs/psi4env/share/psi4/basis/def2-universal-jkfit.gbs 
    atoms 5    entry N          line   258 file /Users/hoyoun/micromamba/envs/psi4env/share/psi4/basis/def2-universal-jkfit.gbs 
    atoms 6-14 entry H          line    18 file /Users/hoyoun/micromamba/envs/psi4env/share/psi4/basis/def2-universal-jkfit.gbs 

  ==> Integral Setup <==

  DFHelper Memory: AOs need 0.184 GiB; user supplied 2.705 GiB. 
  SCF_SUBTYPE=INCORE selected. In-core MEM_DF algorithm will be used.
  Using in-core AOs.

  ==> MemDFJK: Density-Fitted J/K Matrices <==

    J tasked:                   Yes
    K tasked:                   Yes
    wK tasked:                   No
    OpenMP threads:               1
    Memory [MiB]:              2770
    Algorithm:                 Core
    Schwarz Cutoff:           1E-12
    Mask sparsity (%):       1.2546
    Fitting Condition:        1E-10

   => Auxiliary Basis Set <=

  Basis Set: (DEF2-TZVP AUX)
    Blend: DEF2-UNIVERSAL-JKFIT
    Number of shells: 179
    Number of basis functions: 539
    Number of Cartesian functions: 629
    Spherical Harmonics?: true
    Max angular momentum: 4

  Cached 100.0% of DFT collocation blocks in 1.486 [GiB].

  Minimum eigenvalue in the overlap matrix is 6.3025527974E-05.
  Reciprocal condition number of the overlap matrix is 6.2271481179E-06.
    Using symmetric orthogonalization.

  ==> Pre-Iterations <==

  SCF Guess: Superposition of Atomic Densities via on-the-fly atomic UHF (no occupation information).

   -------------------------
    Irrep   Nso     Nmo    
   -------------------------
     A        209     209 
   -------------------------
    Total     209     209
   -------------------------

  ==> Iterations <==

                           Total Energy        Delta E     RMS |[F,P]|

   @DF-RKS iter SAD:  -212.20689262465666   -2.12207e+02   0.00000e+00 
   @DF-RKS iter   1:  -212.00191216099276    2.04980e-01   5.54745e-03 DIIS/ADIIS
   @DF-RKS iter   2:  -211.11467368052030    8.87238e-01   8.23632e-03 DIIS/ADIIS
   @DF-RKS iter   3:  -212.65827858072350   -1.54360e+00   5.57896e-04 DIIS/ADIIS
   @DF-RKS iter   4:  -212.66132161978973   -3.04304e-03   4.11353e-04 DIIS/ADIIS
   @DF-RKS iter   5:  -212.66462700104663   -3.30538e-03   6.73332e-05 DIIS
   @DF-RKS iter   6:  -212.66471073646946   -8.37354e-05   1.04800e-05 DIIS
   @DF-RKS iter   7:  -212.66471310598297   -2.36951e-06   3.03223e-06 DIIS
   @DF-RKS iter   8:  -212.66471329225848   -1.86276e-07   9.75911e-07 DIIS
  Energy and wave function converged.


  ==> Post-Iterations <==

   Electrons on quadrature grid:
      Ntotal   =   40.0000239745 ; deviation = 2.397e-05 

    Orbital Energies [Eh]
    ---------------------

    Doubly Occupied:                                                      

       1A    -14.293762     2A    -10.196862     3A    -10.166177  
       4A    -10.162853     5A    -10.162537     6A     -0.891302  
       7A     -0.815773     8A     -0.657868     9A     -0.637368  
      10A     -0.556783    11A     -0.496409    12A     -0.480504  
      13A     -0.459615    14A     -0.387643    15A     -0.387049  
      16A     -0.373922    17A     -0.331778    18A     -0.317853  
      19A     -0.308530    20A     -0.235754  

    Virtual:                                                              

      21A      0.031414    22A      0.047152    23A      0.052254  
      24A      0.075673    25A      0.093597    26A      0.103991  
      27A      0.113982    28A      0.132632    29A      0.143233  
      30A      0.149914    31A      0.158330    32A      0.186009  
      33A      0.200435    34A      0.214207    35A      0.224344  
      36A      0.227928    37A      0.237650    38A      0.287633  
      39A      0.312872    40A      0.326353    41A      0.339262  
      42A      0.349563    43A      0.372622    44A      0.377675  
      45A      0.396515    46A      0.409914    47A      0.419461  
      48A      0.434365    49A      0.442304    50A      0.444786  
      51A      0.451813    52A      0.462175    53A      0.463512  
      54A      0.478707    55A      0.485041    56A      0.497035  
      57A      0.509660    58A      0.553553    59A      0.589547  
      60A      0.609190    61A      0.638578    62A      0.666873  
      63A      0.706692    64A      0.754446    65A      0.859229  
      66A      0.881480    67A      0.909529    68A      0.911614  
      69A      0.932993    70A      0.939487    71A      0.949687  
      72A      0.983427    73A      1.007955    74A      1.010917  
      75A      1.039089    76A      1.073527    77A      1.102869  
      78A      1.134745    79A      1.149126    80A      1.164362  
      81A      1.186317    82A      1.206405    83A      1.246180  
      84A      1.321068    85A      1.375815    86A      1.382711  
      87A      1.448700    88A      1.469635    89A      1.501274  
      90A      1.526879    91A      1.563391    92A      1.565079  
      93A      1.592332    94A      1.611648    95A      1.656582  
      96A      1.673686    97A      1.710122    98A      1.733656  
      99A      1.747723   100A      1.755872   101A      1.761257  
     102A      1.793183   103A      1.799400   104A      1.849700  
     105A      1.882593   106A      1.939905   107A      1.961582  
     108A      1.976970   109A      2.000740   110A      2.028287  
     111A      2.037561   112A      2.080498   113A      2.125927  
     114A      2.179633   115A      2.230044   116A      2.283900  
     117A      2.291784   118A      2.308478   119A      2.320347  
     120A      2.391009   121A      2.440161   122A      2.451988  
     123A      2.463231   124A      2.484957   125A      2.509698  
     126A      2.522074   127A      2.532873   128A      2.546339  
     129A      2.570356   130A      2.601138   131A      2.618165  
     132A      2.633230   133A      2.656607   134A      2.667022  
     135A      2.697914   136A      2.722908   137A      2.749218  
     138A      2.772049   139A      2.798649   140A      2.843854  
     141A      2.882419   142A      2.905150   143A      2.955984  
     144A      2.993684   145A      3.009812   146A      3.020784  
     147A      3.069034   148A      3.086124   149A      3.130680  
     150A      3.158012   151A      3.214685   152A      3.237919  
     153A      3.245523   154A      3.254569   155A      3.279772  
     156A      3.331705   157A      3.339353   158A      3.393523  
     159A      3.416823   160A      3.424251   161A      3.436312  
     162A      3.475307   163A      3.546846   164A      3.611145  
     165A      3.625961   166A      3.672875   167A      3.722339  
     168A      3.744101   169A      3.784032   170A      3.813015  
     171A      3.825242   172A      3.868832   173A      3.911962  
     174A      3.941372   175A      3.999129   176A      4.022346  
     177A      4.041631   178A      4.078250   179A      4.124939  
     180A      4.147904   181A      4.158949   182A      4.253900  
     183A      4.330150   184A      4.346158   185A      4.370073  
     186A      4.428460   187A      4.436718   188A      4.512142  
     189A      4.562429   190A      4.584899   191A      4.702795  
     192A      4.796252   193A      4.834911   194A      4.860538  
     195A      4.905193   196A      4.932108   197A      4.967023  
     198A      5.072333   199A      5.124333   200A      5.211544  
     201A      5.217275   202A      5.347549   203A      5.532827  
     204A      5.828743   205A     22.307063   206A     22.420820  
     207A     22.516537   208A     22.619859   209A     31.958324  

    Final Occupation by Irrep:
              A 
    DOCC [    20 ]
    NA   [    20 ]
    NB   [    20 ]

  @DF-RKS Final Energy:  -212.66471329225848

   => Energetics <=

    Nuclear Repulsion Energy =            185.0129705481254803
    One-Electron Energy =                -652.0338595572159193
    Two-Electron Energy =                 280.3132216585473770
    DFT Exchange-Correlation Energy =     -25.9398752676990618
    Empirical Dispersion Energy =          -0.0171706740164285
    VV10 Nonlocal Energy =                  0.0000000000000000
    Total Energy =                       -212.6647132922585115

Computation Completed


Properties will be evaluated at   0.000000,   0.000000,   0.000000 [a0]

Properties computed using the SCF density matrix


 Multipole Moments:

 ------------------------------------------------------------------------------------
     Multipole            Electronic (a.u.)      Nuclear  (a.u.)        Total (a.u.)
 ------------------------------------------------------------------------------------

 L = 1.  Multiply by 2.5417464519 to convert [e a0] to [Debye]
 Dipole X            :          3.1756618           -2.7486690            0.4269929
 Dipole Y            :          7.1443062           -7.0449690            0.0993373
 Dipole Z            :         -2.0076542            1.8788224           -0.1288318
 Magnitude           :                                                    0.4569337

 ------------------------------------------------------------------------------------

*** tstop() called on choehoyun-ui-MacBookAir.local at Sun Aug  9 01:27:07 2026
Module time:
	user time   =      27.93 seconds =       0.47 minutes
	system time =       5.71 seconds =       0.10 minutes
	total time  =         49 seconds =       0.82 minutes
Total time:
	user time   =      27.93 seconds =       0.47 minutes
	system time =       5.71 seconds =       0.10 minutes
	total time  =         49 seconds =       0.82 minutes

    Psi4 stopped on: Sunday, 09 August 2026 01:27AM
    Psi4 wall time for execution: 0:00:49.08

*** Psi4 exiting successfully. Buy a developer a beer!
