
    -----------------------------------------------------------------------
          Psi4: An Open-Source Ab Initio Electronic Structure Package
                               Psi4 1.11 release

                         Git: Rev {} zzzzzzz 


    D. G. A. Smith, L. A. Burns, A. C. Simmonett, R. M. Parrish,
    M. C. Schieber, R. Galvelis, P. Kraus, H. Kruse, R. Di Remigio,
    A. Alenaizan, A. M. James, S. Lehtola, J. P. Misiewicz, M. Scheurer,
    R. A. Shaw, J. B. Schriber, Y. Xie, Z. L. Glick, D. A. Sirianni,
    J. S. O'Brien, J. M. Waldrop, A. Kumar, E. G. Hohenstein,
    B. P. Pritchard, B. R. Brooks, H. F. Schaefer III, A. Yu. Sokolov,
    K. Patkowski, A. E. DePrince III, U. Bozkaya, R. A. King,
    F. A. Evangelista, J. M. Turney, T. D. Crawford, C. D. Sherrill,
    J. Chem. Phys. 152(18) 184108 (2020). https://doi.org/10.1063/5.0006002

                            Additional Code Authors
    E. T. Seidl, C. L. Janssen, E. F. Valeev, M. L. Leininger,
    J. F. Gonthier, R. M. Richard, H. R. McAlexander, M. Saitow, X. Wang,
    P. Verma, M. H. Lechner, A. Jiang, S. Behnle, A. G. Heide,
    M. F. Herbst, D. L. Poole, T. Győri, E. C. Mitchell, J. P. Pederson,
    and A. M. Wallace

             Previous Authors, Complete List of Code Contributors,
                       and Citations for Specific Modules
    https://github.com/psi4/psi4/blob/master/codemeta.json
    https://github.com/psi4/psi4/graphs/contributors
    https://psicode.org/psi4manual/master/introduction.html#citing-psifour

    -----------------------------------------------------------------------


    Psi4 started on: Monday, 10 August 2026 06:31PM

    Process ID: 75173
    Host:       choehoyun-ui-MacBookAir.local
    PSIDATADIR: /Users/hoyoun/micromamba/envs/psi4env/share/psi4
    Memory:     500.0 MiB
    Threads:    8
    Addons:     a̶d̶c̶c̶, a̶m̶b̶i̶t̶, b̶s̶e̶, c̶c̶t̶3̶, c̶f̶o̶u̶r̶, c̶h̶e̶m̶p̶s̶2̶, c̶p̶p̶e̶, d̶d̶x̶, dftd3,
                d̶f̶t̶d̶4̶, dkh, ecpint, einsums, f̶o̶r̶t̶e̶, gauxc, g̶c̶p̶, g̶d̶m̶a̶,
                g̶e̶o̶m̶e̶t̶r̶i̶c̶, g̶p̶u̶_̶d̶f̶c̶c̶, i̶n̶t̶e̶g̶r̶a̶t̶o̶r̶x̶x̶, i̶p̶i̶,
                l̶i̶b̶e̶f̶p̶, m̶d̶i̶, m̶p̶2̶d̶, m̶r̶c̶c̶, ooo, o̶p̶e̶n̶f̶e̶r̶m̶i̶o̶n̶p̶s̶i̶4̶,
                pcmsolver, p̶s̶i̶4̶f̶o̶c̶k̶c̶i̶, p̶s̶i̶x̶a̶s̶, p̶y̶e̶i̶n̶s̶u̶m̶s̶, r̶e̶s̶p̶,
                s̶i̶m̶i̶n̶t̶, s̶n̶s̶m̶p̶2̶, v̶2̶r̶d̶m̶_̶c̶a̶s̶s̶c̶f̶

  ==> Input File <==

--------------------------------------------------------------------------
memory 3 GB
molecule mol {
0 1
C -0.26285998141650 0.40275197134869 0.43359696906586
C 0.77683094490470 1.33861590472963 -0.14462398992071
C 1.17464891662322 0.13002999101224 0.04405399698685
C -1.37785890192050 -0.10239099278943 -0.39262997231889
C 2.18589484485731 -0.93727093356226 -0.01629999903091
C -2.57175481763323 -0.45763796760427 0.07170499483210
H 0.95876893185456 2.34389783381422 -0.47803096609115
H -1.17309991649994 -0.17761298720862 -1.45758889667318
H 2.38272483104100 -1.33128290561433 0.98341093018083
H 1.82157987083520 -1.77127187447456 -0.61971295614872
H -2.80829680071546 -0.39196797215722 1.12708492000543
H -3.35120076210619 -0.82231194179639 -0.58255295868395
H 3.12284377832015 -0.57830995918496 -0.44187996880644
H -0.50272996421152 0.48426796564704 1.49444989366765
units angstrom
no_reorient
no_com
}
set basis def2-SVP
set scf_type df
set freeze_core true
set e_convergence 8
energy('b3lyp-d3bj')
--------------------------------------------------------------------------

  Memory set to   2.794 GiB by Python driver.

Scratch directory: /Users/hoyoun/Documents/Yonsei_AX_Camp/(진짜_이게_최종)/calibration/dft_work/_scratch/P26/
   => Libint2 <=

    Primary   basis highest AM E, G, H:  7, 6, 3
    Auxiliary basis highest AM E, G, H:  7, 7, 4
    Onebody   basis highest AM E, G, H:  -, -, -
    Solid Harmonics ordering:            Gaussian

*** tstart() called on choehoyun-ui-MacBookAir.local
*** at Mon Aug 10 18:31:54 2026

   => Loading Basis Set <=

    Name: DEF2-SVP
    Role: ORBITAL
    Keyword: BASIS
    atoms 1-6  entry C          line    90 file /Users/hoyoun/micromamba/envs/psi4env/share/psi4/basis/def2-svp.gbs 
    atoms 7-14 entry H          line    15 file /Users/hoyoun/micromamba/envs/psi4env/share/psi4/basis/def2-svp.gbs 

   => B3LYP-D3(BJ): Empirical Dispersion <=

    Grimme's -D3 (BJ-damping) Dispersion Correction
    Grimme S.; Ehrlich S.; Goerigk L. (2011), J. Comput. Chem., 32: 1456

        s6 =       1.000000
        s8 =       1.988900
        a1 =       0.398100
        a2 =       4.421100


         ---------------------------------------------------------
                                   SCF
               by Justin Turney, Rob Parrish, Andy Simmonett
                          and Daniel G. A. Smith
                              RKS Reference
                        8 Threads,   2861 MiB Core
         ---------------------------------------------------------

  ==> Geometry <==

    Molecular point group: c1
    Full point group: C1

    Geometry (in Angstrom), charge = 0, multiplicity = 1:

       Center              X                  Y                   Z               Mass       
    ------------   -----------------  -----------------  -----------------  -----------------
         C           -0.262859981417     0.402751971349     0.433596969066    12.000000000000
         C            0.776830944905     1.338615904730    -0.144623989921    12.000000000000
         C            1.174648916623     0.130029991012     0.044053996987    12.000000000000
         C           -1.377858901921    -0.102390992789    -0.392629972319    12.000000000000
         C            2.185894844857    -0.937270933562    -0.016299999031    12.000000000000
         C           -2.571754817633    -0.457637967604     0.071704994832    12.000000000000
         H            0.958768931855     2.343897833814    -0.478030966091     1.007825032230
         H           -1.173099916500    -0.177612987209    -1.457588896673     1.007825032230
         H            2.382724831041    -1.331282905614     0.983410930181     1.007825032230
         H            1.821579870835    -1.771271874475    -0.619712956149     1.007825032230
         H           -2.808296800715    -0.391967972157     1.127084920005     1.007825032230
         H           -3.351200762106    -0.822311941796    -0.582552958684     1.007825032230
         H            3.122843778320    -0.578309959185    -0.441879968806     1.007825032230
         H           -0.502729964212     0.484267965647     1.494449893668     1.007825032230

  Running in c1 symmetry.

  Rotational constants: A =      0.27645  B =      0.07109  C =      0.06161 [cm^-1]
  Rotational constants: A =   8287.81627  B =   2131.34108  C =   1847.09752 [MHz]
  Nuclear repulsion =  204.631443847752962

  Charge       = 0
  Multiplicity = 1
  Electrons    = 44
  Nalpha       = 22
  Nbeta        = 22

  ==> Algorithm <==

  SCF Algorithm Type is DF.
  DIIS enabled.
  MOM disabled.
  Fractional occupation disabled.
  Guess Type is SAD.
  Energy threshold   = 1.00e-08
  Density threshold  = 1.00e-06
  Integral threshold = 1.00e-12

  ==> Primary Basis <==

  Basis Set: DEF2-SVP
    Blend: DEF2-SVP
    Number of shells: 60
    Number of basis functions: 124
    Number of Cartesian functions: 130
    Spherical Harmonics?: true
    Max angular momentum: 2

  ==> DFT Potential <==

   => LibXC <=

    Version 7.1.2
    S. Lehtola, C. Steigemann, M. J. T. Oliveira, and M. A. L. Marques,  SoftwareX 7, 1–5 (2018) (10.1016/j.softx.2017.11.002)

   => Composite Functional: B3LYP-D3BJ2B <= 

    B3LYP-d3bj2b Hyb-GGA Exchange-Correlation Functional

    P. J. Stephens, F. J. Devlin, C. F. Chabalowski, and M. J. Frisch,  J. Phys. Chem. 98, 11623 (1994) (10.1021/j100096a001)

    Deriv               =              1
    GGA                 =           TRUE
    Meta                =          FALSE

    Exchange Hybrid     =           TRUE
    MP2 Hybrid          =          FALSE

   => Exchange Functionals <=

    0.0800   Slater exchange
    0.7200         Becke 88

   => Exact (HF) Exchange <=

    0.2000               HF 

   => Correlation Functionals <=

    0.1900   Vosko, Wilk & Nusair (VWN5_RPA)
    0.8100   Lee, Yang & Parr

   => LibXC Density Thresholds  <==

    XC_HYB_GGA_XC_B3LYP:  1.00E-15 

   => Molecular Quadrature <=

    Radial Scheme          =       TREUTLER
    Pruning Scheme         =           NONE
    Nuclear Scheme         =       TREUTLER

    Blocking Scheme        =         OCTREE
    BS radius alpha        =              1
    Pruning alpha          =              1
    Radial Points          =             75
    Spherical Points       =            302
    Total Points           =         298178
    Total Blocks           =           2268
    Max Points             =            256
    Max Functions          =            122
    Weights Tolerance      =       1.00E-15

   => Loading Basis Set <=

    Name: (DEF2-SVP AUX)
    Role: JKFIT
    Keyword: DF_BASIS_SCF
    atoms 1-6  entry C          line   198 file /Users/hoyoun/micromamba/envs/psi4env/share/psi4/basis/def2-universal-jkfit.gbs 
    atoms 7-14 entry H          line    18 file /Users/hoyoun/micromamba/envs/psi4env/share/psi4/basis/def2-universal-jkfit.gbs 

  ==> Integral Setup <==

  DFHelper Memory: AOs need 0.071 GiB; user supplied 1.313 GiB. 
  SCF_SUBTYPE=INCORE selected. In-core MEM_DF algorithm will be used.
  Using in-core AOs.

  ==> MemDFJK: Density-Fitted J/K Matrices <==

    J tasked:                   Yes
    K tasked:                   Yes
    wK tasked:                   No
    OpenMP threads:               8
    Memory [MiB]:              1344
    Algorithm:                 Core
    Schwarz Cutoff:           1E-12
    Mask sparsity (%):       4.7607
    Fitting Condition:        1E-10

   => Auxiliary Basis Set <=

  Basis Set: (DEF2-SVP AUX)
    Blend: DEF2-UNIVERSAL-JKFIT
    Number of shells: 198
    Number of basis functions: 594
    Number of Cartesian functions: 694
    Spherical Harmonics?: true
    Max angular momentum: 4

  Cached 100.0% of DFT collocation blocks in 0.783 [GiB].

  Minimum eigenvalue in the overlap matrix is 1.1232490051E-03.
  Reciprocal condition number of the overlap matrix is 1.8431560451E-04.
    Using symmetric orthogonalization.

  ==> Pre-Iterations <==

  SCF Guess: Superposition of Atomic Densities via on-the-fly atomic UHF (no occupation information).

   -------------------------
    Irrep   Nso     Nmo    
   -------------------------
     A        124     124 
   -------------------------
    Total     124     124
   -------------------------

  ==> Iterations <==

                           Total Energy        Delta E     RMS |[F,P]|

   @DF-RKS iter SAD:  -232.66518920921575   -2.32665e+02   0.00000e+00 
   @DF-RKS iter   1:  -232.72313357615903   -5.79444e-02   7.14352e-03 ADIIS/DIIS
   @DF-RKS iter   2:  -232.65048451787007    7.26491e-02   7.77970e-03 ADIIS/DIIS
   @DF-RKS iter   3:  -233.18514261632882   -5.34658e-01   1.09999e-03 ADIIS/DIIS
   @DF-RKS iter   4:  -233.19248708892036   -7.34447e-03   5.62401e-04 ADIIS/DIIS
   @DF-RKS iter   5:  -233.19489204270101   -2.40495e-03   9.81044e-05 DIIS
   @DF-RKS iter   6:  -233.19495712036101   -6.50777e-05   3.63703e-05 DIIS
   @DF-RKS iter   7:  -233.19496640899263   -9.28863e-06   1.19217e-05 DIIS
   @DF-RKS iter   8:  -233.19496747826560   -1.06927e-06   3.12499e-06 DIIS
   @DF-RKS iter   9:  -233.19496755581565   -7.75501e-08   5.63617e-07 DIIS
   @DF-RKS iter  10:  -233.19496755824528   -2.42963e-09   1.73691e-07 DIIS
  Energy and wave function converged.


  ==> Post-Iterations <==

   Electrons on quadrature grid:
      Ntotal   =   44.0000240401 ; deviation = 2.404e-05 

    Orbital Energies [Eh]
    ---------------------

    Doubly Occupied:                                                      

       1A    -10.204560     2A    -10.201661     3A    -10.199075  
       4A    -10.194220     5A    -10.176261     6A    -10.166820  
       7A     -0.875783     8A     -0.754311     9A     -0.729648  
      10A     -0.607502    11A     -0.547562    12A     -0.529493  
      13A     -0.478712    14A     -0.447124    15A     -0.442830  
      16A     -0.419489    17A     -0.416959    18A     -0.351722  
      19A     -0.336460    20A     -0.324760    21A     -0.252888  
      22A     -0.233801  

    Virtual:                                                              

      23A      0.000616    24A      0.033843    25A      0.068701  
      26A      0.098137    27A      0.099893    28A      0.105732  
      29A      0.117735    30A      0.135627    31A      0.144915  
      32A      0.173211    33A      0.189633    34A      0.213364  
      35A      0.252749    36A      0.271247    37A      0.321888  
      38A      0.333842    39A      0.352671    40A      0.401619  
      41A      0.434342    42A      0.446650    43A      0.460831  
      44A      0.484796    45A      0.489266    46A      0.528648  
      47A      0.544115    48A      0.562714    49A      0.582051  
      50A      0.607579    51A      0.634785    52A      0.635449  
      53A      0.653217    54A      0.659769    55A      0.664982  
      56A      0.671268    57A      0.683334    58A      0.686024  
      59A      0.698624    60A      0.703785    61A      0.709961  
      62A      0.735489    63A      0.778700    64A      0.857489  
      65A      0.873826    66A      0.916739    67A      0.962244  
      68A      1.070607    69A      1.109514    70A      1.160685  
      71A      1.190568    72A      1.216224    73A      1.260979  
      74A      1.320813    75A      1.364747    76A      1.438487  
      77A      1.479269    78A      1.523174    79A      1.590420  
      80A      1.602378    81A      1.617981    82A      1.664716  
      83A      1.681232    84A      1.692718    85A      1.721155  
      86A      1.758169    87A      1.785592    88A      1.795987  
      89A      1.825298    90A      1.832480    91A      1.871609  
      92A      1.890307    93A      1.903594    94A      1.915746  
      95A      1.962908    96A      1.985235    97A      2.026806  
      98A      2.056176    99A      2.109027   100A      2.129622  
     101A      2.209549   102A      2.215652   103A      2.230190  
     104A      2.290061   105A      2.337096   106A      2.346029  
     107A      2.390460   108A      2.447804   109A      2.466679  
     110A      2.554735   111A      2.568410   112A      2.610734  
     113A      2.671451   114A      2.757018   115A      2.767824  
     116A      2.816335   117A      2.870576   118A      2.885400  
     119A      2.933014   120A      2.961371   121A      3.107363  
     122A      3.146097   123A      3.341820   124A      3.455960  

    Final Occupation by Irrep:
              A 
    DOCC [    22 ]
    NA   [    22 ]
    NB   [    22 ]

  @DF-RKS Final Energy:  -233.19496755824528

   => Energetics <=

    Nuclear Repulsion Energy =            204.6314438477529620
    One-Electron Energy =                -717.1952137221885550
    Two-Electron Energy =                 308.0890297438940024
    DFT Exchange-Correlation Energy =     -28.7024333076035276
    Empirical Dispersion Energy =          -0.0177941201002198
    VV10 Nonlocal Energy =                  0.0000000000000000
    Total Energy =                       -233.1949675582453381

Computation Completed


Properties will be evaluated at   0.000000,   0.000000,   0.000000 [a0]

Properties computed using the SCF density matrix


 Multipole Moments:

 ------------------------------------------------------------------------------------
     Multipole            Electronic (a.u.)      Nuclear  (a.u.)        Total (a.u.)
 ------------------------------------------------------------------------------------

 L = 1.  Multiply by 2.5417464519 to convert [e a0] to [Debye]
 Dipole X            :          0.5411258           -0.0000076            0.5411182
 Dipole Y            :         -0.0900486           -0.0000076           -0.0900561
 Dipole Z            :         -0.0707032           -0.0000151           -0.0707184
 Magnitude           :                                                    0.5531004

 ------------------------------------------------------------------------------------

*** tstop() called on choehoyun-ui-MacBookAir.local at Mon Aug 10 18:31:56 2026
Module time:
	user time   =       9.94 seconds =       0.17 minutes
	system time =       0.35 seconds =       0.01 minutes
	total time  =          2 seconds =       0.03 minutes
Total time:
	user time   =       9.94 seconds =       0.17 minutes
	system time =       0.35 seconds =       0.01 minutes
	total time  =          2 seconds =       0.03 minutes

    Psi4 stopped on: Monday, 10 August 2026 06:31PM
    Psi4 wall time for execution: 0:00:02.13

*** Psi4 exiting successfully. Buy a developer a beer!
