
    -----------------------------------------------------------------------
          Psi4: An Open-Source Ab Initio Electronic Structure Package
                               Psi4 1.11 release

                         Git: Rev {} zzzzzzz 


    D. G. A. Smith, L. A. Burns, A. C. Simmonett, R. M. Parrish,
    M. C. Schieber, R. Galvelis, P. Kraus, H. Kruse, R. Di Remigio,
    A. Alenaizan, A. M. James, S. Lehtola, J. P. Misiewicz, M. Scheurer,
    R. A. Shaw, J. B. Schriber, Y. Xie, Z. L. Glick, D. A. Sirianni,
    J. S. O'Brien, J. M. Waldrop, A. Kumar, E. G. Hohenstein,
    B. P. Pritchard, B. R. Brooks, H. F. Schaefer III, A. Yu. Sokolov,
    K. Patkowski, A. E. DePrince III, U. Bozkaya, R. A. King,
    F. A. Evangelista, J. M. Turney, T. D. Crawford, C. D. Sherrill,
    J. Chem. Phys. 152(18) 184108 (2020). https://doi.org/10.1063/5.0006002

                            Additional Code Authors
    E. T. Seidl, C. L. Janssen, E. F. Valeev, M. L. Leininger,
    J. F. Gonthier, R. M. Richard, H. R. McAlexander, M. Saitow, X. Wang,
    P. Verma, M. H. Lechner, A. Jiang, S. Behnle, A. G. Heide,
    M. F. Herbst, D. L. Poole, T. Győri, E. C. Mitchell, J. P. Pederson,
    and A. M. Wallace

             Previous Authors, Complete List of Code Contributors,
                       and Citations for Specific Modules
    https://github.com/psi4/psi4/blob/master/codemeta.json
    https://github.com/psi4/psi4/graphs/contributors
    https://psicode.org/psi4manual/master/introduction.html#citing-psifour

    -----------------------------------------------------------------------


    Psi4 started on: Sunday, 09 August 2026 04:18PM

    Process ID: 61724
    Host:       choehoyun-ui-MacBookAir.local
    PSIDATADIR: /Users/hoyoun/micromamba/envs/psi4env/share/psi4
    Memory:     500.0 MiB
    Threads:    8
    Addons:     a̶d̶c̶c̶, a̶m̶b̶i̶t̶, b̶s̶e̶, c̶c̶t̶3̶, c̶f̶o̶u̶r̶, c̶h̶e̶m̶p̶s̶2̶, c̶p̶p̶e̶, d̶d̶x̶, dftd3,
                d̶f̶t̶d̶4̶, dkh, ecpint, einsums, f̶o̶r̶t̶e̶, gauxc, g̶c̶p̶, g̶d̶m̶a̶,
                g̶e̶o̶m̶e̶t̶r̶i̶c̶, g̶p̶u̶_̶d̶f̶c̶c̶, i̶n̶t̶e̶g̶r̶a̶t̶o̶r̶x̶x̶, i̶p̶i̶,
                l̶i̶b̶e̶f̶p̶, m̶d̶i̶, m̶p̶2̶d̶, m̶r̶c̶c̶, ooo, o̶p̶e̶n̶f̶e̶r̶m̶i̶o̶n̶p̶s̶i̶4̶,
                pcmsolver, p̶s̶i̶4̶f̶o̶c̶k̶c̶i̶, p̶s̶i̶x̶a̶s̶, p̶y̶e̶i̶n̶s̶u̶m̶s̶, r̶e̶s̶p̶,
                s̶i̶m̶i̶n̶t̶, s̶n̶s̶m̶p̶2̶, v̶2̶r̶d̶m̶_̶c̶a̶s̶s̶c̶f̶

  ==> Input File <==

--------------------------------------------------------------------------
memory 3 GB
molecule mol {
0 1
C 0.64028495464814 0.02587699792203 0.49022896542009
C -0.46433996681728 1.10300292187507 0.15907598888721
C -0.48707296523451 -0.98267693016785 0.30203497880659
C -1.41982489898578 -0.06734599545506 0.02349499825480
H -0.27748598020008 1.67281488138125 -0.75313494662400
H -0.67245195239878 1.80105987193441 0.97251293087199
C 1.78041087338821 -0.05561399592817 -0.46505696701236
H 1.50496489303244 -0.11328899209826 -1.51502289231200
C 3.06320078268626 -0.07292899495036 -0.12523399127349
H 3.37228776062986 -0.02290899852416 0.91203093535375
H 3.84786272691261 -0.13774898997720 -0.86675893858904
H -0.49936596457306 -2.06285785342729 0.36854597389867
C -2.86785879625204 -0.10451599278158 -0.29816797876633
H -3.06428878267377 0.35336697487533 -1.27122790953769
H -3.24562076964031 -1.12677791996323 -0.31778297721349
H -3.44579575535470 0.46107296747829 0.43768696914540
H 1.01109692833599 0.10048199288039 1.51489989247780
units angstrom
no_reorient
no_com
}
set basis def2-TZVP
set scf_type df
set freeze_core true
set e_convergence 8
energy('b3lyp-d3bj')
--------------------------------------------------------------------------

  Memory set to   2.794 GiB by Python driver.

Scratch directory: /Users/hoyoun/Documents/Yonsei_AX_Camp/(진짜_이게_최종)/calibration/dft_work/_scratch/P47/
   => Libint2 <=

    Primary   basis highest AM E, G, H:  7, 6, 3
    Auxiliary basis highest AM E, G, H:  7, 7, 4
    Onebody   basis highest AM E, G, H:  -, -, -
    Solid Harmonics ordering:            Gaussian

*** tstart() called on choehoyun-ui-MacBookAir.local
*** at Sun Aug  9 16:18:53 2026

   => Loading Basis Set <=

    Name: DEF2-TZVP
    Role: ORBITAL
    Keyword: BASIS
    atoms 1-4, 7, 9, 13        entry C          line   123 file /Users/hoyoun/micromamba/envs/psi4env/share/psi4/basis/def2-tzvp.gbs 
    atoms 5-6, 8, 10-12, 14-17 entry H          line    15 file /Users/hoyoun/micromamba/envs/psi4env/share/psi4/basis/def2-tzvp.gbs 

   => B3LYP-D3(BJ): Empirical Dispersion <=

    Grimme's -D3 (BJ-damping) Dispersion Correction
    Grimme S.; Ehrlich S.; Goerigk L. (2011), J. Comput. Chem., 32: 1456

        s6 =       1.000000
        s8 =       1.988900
        a1 =       0.398100
        a2 =       4.421100


         ---------------------------------------------------------
                                   SCF
               by Justin Turney, Rob Parrish, Andy Simmonett
                          and Daniel G. A. Smith
                              RKS Reference
                        8 Threads,   2861 MiB Core
         ---------------------------------------------------------

  ==> Geometry <==

    Molecular point group: c1
    Full point group: C1

    Geometry (in Angstrom), charge = 0, multiplicity = 1:

       Center              X                  Y                   Z               Mass       
    ------------   -----------------  -----------------  -----------------  -----------------
         C            0.640284954648     0.025876997922     0.490228965420    12.000000000000
         C           -0.464339966817     1.103002921875     0.159075988887    12.000000000000
         C           -0.487072965235    -0.982676930168     0.302034978807    12.000000000000
         C           -1.419824898986    -0.067345995455     0.023494998255    12.000000000000
         H           -0.277485980200     1.672814881381    -0.753134946624     1.007825032230
         H           -0.672451952399     1.801059871934     0.972512930872     1.007825032230
         C            1.780410873388    -0.055613995928    -0.465056967012    12.000000000000
         H            1.504964893032    -0.113288992098    -1.515022892312     1.007825032230
         C            3.063200782686    -0.072928994950    -0.125233991273    12.000000000000
         H            3.372287760630    -0.022908998524     0.912030935354     1.007825032230
         H            3.847862726913    -0.137748989977    -0.866758938589     1.007825032230
         H           -0.499365964573    -2.062857853427     0.368545973899     1.007825032230
         C           -2.867858796252    -0.104515992782    -0.298167978766    12.000000000000
         H           -3.064288782674     0.353366974875    -1.271227909538     1.007825032230
         H           -3.245620769640    -1.126777919963    -0.317782977213     1.007825032230
         H           -3.445795755355     0.461072967478     0.437686969145     1.007825032230
         H            1.011096928336     0.100481992880     1.514899892478     1.007825032230

  Running in c1 symmetry.

  Rotational constants: A =      0.29858  B =      0.04627  C =      0.04379 [cm^-1]
  Rotational constants: A =   8951.34504  B =   1387.08167  C =   1312.88127 [MHz]
  Nuclear repulsion =  275.924689870793657

  Charge       = 0
  Multiplicity = 1
  Electrons    = 52
  Nalpha       = 26
  Nbeta        = 26

  ==> Algorithm <==

  SCF Algorithm Type is DF.
  DIIS enabled.
  MOM disabled.
  Fractional occupation disabled.
  Guess Type is SAD.
  Energy threshold   = 1.00e-08
  Density threshold  = 1.00e-06
  Integral threshold = 1.00e-12

  ==> Primary Basis <==

  Basis Set: DEF2-TZVP
    Blend: DEF2-TZVP
    Number of shells: 117
    Number of basis functions: 277
    Number of Cartesian functions: 312
    Spherical Harmonics?: true
    Max angular momentum: 3

  ==> DFT Potential <==

   => LibXC <=

    Version 7.1.2
    S. Lehtola, C. Steigemann, M. J. T. Oliveira, and M. A. L. Marques,  SoftwareX 7, 1–5 (2018) (10.1016/j.softx.2017.11.002)

   => Composite Functional: B3LYP-D3BJ2B <= 

    B3LYP-d3bj2b Hyb-GGA Exchange-Correlation Functional

    P. J. Stephens, F. J. Devlin, C. F. Chabalowski, and M. J. Frisch,  J. Phys. Chem. 98, 11623 (1994) (10.1021/j100096a001)

    Deriv               =              1
    GGA                 =           TRUE
    Meta                =          FALSE

    Exchange Hybrid     =           TRUE
    MP2 Hybrid          =          FALSE

   => Exchange Functionals <=

    0.0800   Slater exchange
    0.7200         Becke 88

   => Exact (HF) Exchange <=

    0.2000               HF 

   => Correlation Functionals <=

    0.1900   Vosko, Wilk & Nusair (VWN5_RPA)
    0.8100   Lee, Yang & Parr

   => LibXC Density Thresholds  <==

    XC_HYB_GGA_XC_B3LYP:  1.00E-15 

   => Molecular Quadrature <=

    Radial Scheme          =       TREUTLER
    Pruning Scheme         =           NONE
    Nuclear Scheme         =       TREUTLER

    Blocking Scheme        =         OCTREE
    BS radius alpha        =              1
    Pruning alpha          =              1
    Radial Points          =             75
    Spherical Points       =            302
    Total Points           =         360305
    Total Blocks           =           2721
    Max Points             =            256
    Max Functions          =            261
    Weights Tolerance      =       1.00E-15

   => Loading Basis Set <=

    Name: (DEF2-TZVP AUX)
    Role: JKFIT
    Keyword: DF_BASIS_SCF
    atoms 1-4, 7, 9, 13        entry C          line   198 file /Users/hoyoun/micromamba/envs/psi4env/share/psi4/basis/def2-universal-jkfit.gbs 
    atoms 5-6, 8, 10-12, 14-17 entry H          line    18 file /Users/hoyoun/micromamba/envs/psi4env/share/psi4/basis/def2-universal-jkfit.gbs 

  ==> Integral Setup <==

  DFHelper Memory: AOs need 0.400 GiB; user supplied 0.400 GiB. 
  SCF_SUBTYPE=INCORE selected. In-core MEM_DF algorithm will be used.
  Using in-core AOs.

  ==> MemDFJK: Density-Fitted J/K Matrices <==

    J tasked:                   Yes
    K tasked:                   Yes
    wK tasked:                   No
    OpenMP threads:               8
    Memory [MiB]:               409
    Algorithm:                 Core
    Schwarz Cutoff:           1E-12
    Mask sparsity (%):       6.5920
    Fitting Condition:        1E-10

   => Auxiliary Basis Set <=

  Basis Set: (DEF2-TZVP AUX)
    Blend: DEF2-UNIVERSAL-JKFIT
    Number of shells: 235
    Number of basis functions: 705
    Number of Cartesian functions: 823
    Spherical Harmonics?: true
    Max angular momentum: 4

  Cached 50.0% of DFT collocation blocks in 1.013 [GiB].

  Minimum eigenvalue in the overlap matrix is 2.8115575678E-05.
  Reciprocal condition number of the overlap matrix is 2.7875975297E-06.
    Using symmetric orthogonalization.

  ==> Pre-Iterations <==

  SCF Guess: Superposition of Atomic Densities via on-the-fly atomic UHF (no occupation information).

   -------------------------
    Irrep   Nso     Nmo    
   -------------------------
     A        277     277 
   -------------------------
    Total     277     277
   -------------------------

  ==> Iterations <==

                           Total Energy        Delta E     RMS |[F,P]|

   @DF-RKS iter SAD:  -272.12847327579169   -2.72128e+02   0.00000e+00 
   @DF-RKS iter   1:  -272.04575050262338    8.27228e-02   4.35640e-03 ADIIS/DIIS
   @DF-RKS iter   2:  -271.44128551793813    6.04465e-01   5.64804e-03 ADIIS/DIIS
   @DF-RKS iter   3:  -272.79026216529661   -1.34898e+00   8.51989e-04 ADIIS/DIIS
   @DF-RKS iter   4:  -272.80742923267695   -1.71671e-02   5.56527e-04 ADIIS/DIIS
   @DF-RKS iter   5:  -272.81870656555674   -1.12773e-02   1.24860e-04 ADIIS/DIIS
   @DF-RKS iter   6:  -272.81923474236947   -5.28177e-04   3.36084e-05 DIIS
   @DF-RKS iter   7:  -272.81927232593881   -3.75836e-05   1.18183e-05 DIIS
   @DF-RKS iter   8:  -272.81927742850149   -5.10256e-06   3.46844e-06 DIIS
   @DF-RKS iter   9:  -272.81927786470686   -4.36205e-07   8.29204e-07 DIIS
   @DF-RKS iter  10:  -272.81927789051355   -2.58067e-08   1.86440e-07 DIIS
   @DF-RKS iter  11:  -272.81927789173920   -1.22566e-09   5.07273e-08 DIIS
  Energy and wave function converged.


  ==> Post-Iterations <==

   Electrons on quadrature grid:
      Ntotal   =   52.0000643379 ; deviation = 6.434e-05 

    Orbital Energies [Eh]
    ---------------------

    Doubly Occupied:                                                      

       1A    -10.180239     2A    -10.178938     3A    -10.172917  
       4A    -10.170994     5A    -10.170918     6A    -10.164171  
       7A    -10.159350     8A     -0.868031     9A     -0.774981  
      10A     -0.730478    11A     -0.654812    12A     -0.633886  
      13A     -0.555385    14A     -0.510189    15A     -0.485900  
      16A     -0.460161    17A     -0.437330    18A     -0.430170  
      19A     -0.418185    20A     -0.387503    21A     -0.368324  
      22A     -0.344618    23A     -0.336302    24A     -0.314437  
      25A     -0.260530    26A     -0.244613  

    Virtual:                                                              

      27A     -0.000514    28A      0.020117    29A      0.040875  
      30A      0.060899    31A      0.069375    32A      0.083240  
      33A      0.090288    34A      0.100875    35A      0.112432  
      36A      0.113046    37A      0.119854    38A      0.131290  
      39A      0.139650    40A      0.157692    41A      0.161809  
      42A      0.169993    43A      0.186500    44A      0.199794  
      45A      0.218735    46A      0.225331    47A      0.234089  
      48A      0.248589    49A      0.257730    50A      0.267758  
      51A      0.293598    52A      0.305513    53A      0.313792  
      54A      0.336890    55A      0.350021    56A      0.359086  
      57A      0.369196    58A      0.381719    59A      0.389717  
      60A      0.394936    61A      0.397434    62A      0.416029  
      63A      0.427773    64A      0.437232    65A      0.442313  
      66A      0.450497    67A      0.454072    68A      0.464254  
      69A      0.470601    70A      0.478996    71A      0.488138  
      72A      0.488620    73A      0.508263    74A      0.525844  
      75A      0.530459    76A      0.567171    77A      0.571463  
      78A      0.582900    79A      0.591069    80A      0.624685  
      81A      0.650179    82A      0.667251    83A      0.689609  
      84A      0.717519    85A      0.736764    86A      0.749810  
      87A      0.800144    88A      0.849675    89A      0.856770  
      90A      0.876744    91A      0.899832    92A      0.907096  
      93A      0.925407    94A      0.959041    95A      0.975870  
      96A      0.999402    97A      1.000866    98A      1.011190  
      99A      1.026800   100A      1.029327   101A      1.056000  
     102A      1.075673   103A      1.097259   104A      1.129585  
     105A      1.136746   106A      1.169051   107A      1.187421  
     108A      1.205801   109A      1.235314   110A      1.246055  
     111A      1.264617   112A      1.297149   113A      1.298982  
     114A      1.317857   115A      1.326588   116A      1.344431  
     117A      1.400038   118A      1.427335   119A      1.472680  
     120A      1.486386   121A      1.509755   122A      1.521548  
     123A      1.527190   124A      1.535990   125A      1.546502  
     126A      1.559305   127A      1.561493   128A      1.583494  
     129A      1.590733   130A      1.610050   131A      1.664805  
     132A      1.669150   133A      1.699254   134A      1.730719  
     135A      1.744908   136A      1.769827   137A      1.777235  
     138A      1.808810   139A      1.820339   140A      1.837843  
     141A      1.870433   142A      1.892764   143A      1.912211  
     144A      1.954444   145A      1.980732   146A      1.999124  
     147A      2.037665   148A      2.046162   149A      2.092078  
     150A      2.107460   151A      2.159093   152A      2.170172  
     153A      2.174797   154A      2.192951   155A      2.236433  
     156A      2.269280   157A      2.288501   158A      2.323347  
     159A      2.328460   160A      2.336633   161A      2.358975  
     162A      2.380993   163A      2.409406   164A      2.414256  
     165A      2.441385   166A      2.444436   167A      2.488428  
     168A      2.497836   169A      2.517773   170A      2.543495  
     171A      2.550441   172A      2.573047   173A      2.593849  
     174A      2.599269   175A      2.620255   176A      2.629432  
     177A      2.658861   178A      2.679543   179A      2.701832  
     180A      2.723813   181A      2.741881   182A      2.759424  
     183A      2.794921   184A      2.807704   185A      2.836256  
     186A      2.868270   187A      2.878501   188A      2.920091  
     189A      2.921641   190A      2.935017   191A      2.943107  
     192A      2.963164   193A      2.993598   194A      3.005014  
     195A      3.009477   196A      3.030327   197A      3.052433  
     198A      3.060467   199A      3.080783   200A      3.099132  
     201A      3.105222   202A      3.122304   203A      3.149712  
     204A      3.177418   205A      3.181184   206A      3.202105  
     207A      3.220835   208A      3.234004   209A      3.248824  
     210A      3.267204   211A      3.295146   212A      3.309241  
     213A      3.318514   214A      3.319498   215A      3.342250  
     216A      3.360986   217A      3.401285   218A      3.406335  
     219A      3.439595   220A      3.443973   221A      3.455887  
     222A      3.491347   223A      3.497842   224A      3.519418  
     225A      3.556067   226A      3.582015   227A      3.601853  
     228A      3.645830   229A      3.667917   230A      3.717658  
     231A      3.731538   232A      3.744054   233A      3.762061  
     234A      3.781888   235A      3.803496   236A      3.851628  
     237A      3.895522   238A      3.931782   239A      3.945416  
     240A      4.011323   241A      4.022333   242A      4.067170  
     243A      4.092230   244A      4.102659   245A      4.149351  
     246A      4.184804   247A      4.243060   248A      4.276157  
     249A      4.278297   250A      4.363343   251A      4.390030  
     252A      4.412632   253A      4.449309   254A      4.463734  
     255A      4.531931   256A      4.549757   257A      4.604005  
     258A      4.636443   259A      4.666152   260A      4.699428  
     261A      4.738537   262A      4.764038   263A      4.845113  
     264A      4.884621   265A      4.929135   266A      5.026357  
     267A      5.062912   268A      5.139472   269A      5.304108  
     270A      5.501593   271A     22.163303   272A     22.287861  
     273A     22.389191   274A     22.560104   275A     22.599889  
     276A     22.742831   277A     23.198431  

    Final Occupation by Irrep:
              A 
    DOCC [    26 ]
    NA   [    26 ]
    NB   [    26 ]

  @DF-RKS Final Energy:  -272.81927789173920

   => Energetics <=

    Nuclear Repulsion Energy =            275.9246898707936566
    One-Electron Energy =                -912.3086270569441467
    Two-Electron Energy =                 397.3844035119645355
    DFT Exchange-Correlation Energy =     -33.7958777881256722
    Empirical Dispersion Energy =          -0.0238664294276094
    VV10 Nonlocal Energy =                  0.0000000000000000
    Total Energy =                       -272.8192778917391479

Computation Completed


Properties will be evaluated at   0.000000,   0.000000,   0.000000 [a0]

Properties computed using the SCF density matrix


 Multipole Moments:

 ------------------------------------------------------------------------------------
     Multipole            Electronic (a.u.)      Nuclear  (a.u.)        Total (a.u.)
 ------------------------------------------------------------------------------------

 L = 1.  Multiply by 2.5417464519 to convert [e a0] to [Debye]
 Dipole X            :         -0.3426838            0.0000057           -0.3426782
 Dipole Y            :          0.0734090            0.0000038            0.0734127
 Dipole Z            :         -0.0112172            0.0000095           -0.0112077
 Magnitude           :                                                    0.3506328

 ------------------------------------------------------------------------------------

*** tstop() called on choehoyun-ui-MacBookAir.local at Sun Aug  9 16:19:02 2026
Module time:
	user time   =      63.40 seconds =       1.06 minutes
	system time =       1.45 seconds =       0.02 minutes
	total time  =          9 seconds =       0.15 minutes
Total time:
	user time   =      63.40 seconds =       1.06 minutes
	system time =       1.45 seconds =       0.02 minutes
	total time  =          9 seconds =       0.15 minutes

    Psi4 stopped on: Sunday, 09 August 2026 04:19PM
    Psi4 wall time for execution: 0:00:09.85

*** Psi4 exiting successfully. Buy a developer a beer!
