
    -----------------------------------------------------------------------
          Psi4: An Open-Source Ab Initio Electronic Structure Package
                               Psi4 1.11 release

                         Git: Rev {} zzzzzzz 


    D. G. A. Smith, L. A. Burns, A. C. Simmonett, R. M. Parrish,
    M. C. Schieber, R. Galvelis, P. Kraus, H. Kruse, R. Di Remigio,
    A. Alenaizan, A. M. James, S. Lehtola, J. P. Misiewicz, M. Scheurer,
    R. A. Shaw, J. B. Schriber, Y. Xie, Z. L. Glick, D. A. Sirianni,
    J. S. O'Brien, J. M. Waldrop, A. Kumar, E. G. Hohenstein,
    B. P. Pritchard, B. R. Brooks, H. F. Schaefer III, A. Yu. Sokolov,
    K. Patkowski, A. E. DePrince III, U. Bozkaya, R. A. King,
    F. A. Evangelista, J. M. Turney, T. D. Crawford, C. D. Sherrill,
    J. Chem. Phys. 152(18) 184108 (2020). https://doi.org/10.1063/5.0006002

                            Additional Code Authors
    E. T. Seidl, C. L. Janssen, E. F. Valeev, M. L. Leininger,
    J. F. Gonthier, R. M. Richard, H. R. McAlexander, M. Saitow, X. Wang,
    P. Verma, M. H. Lechner, A. Jiang, S. Behnle, A. G. Heide,
    M. F. Herbst, D. L. Poole, T. Győri, E. C. Mitchell, J. P. Pederson,
    and A. M. Wallace

             Previous Authors, Complete List of Code Contributors,
                       and Citations for Specific Modules
    https://github.com/psi4/psi4/blob/master/codemeta.json
    https://github.com/psi4/psi4/graphs/contributors
    https://psicode.org/psi4manual/master/introduction.html#citing-psifour

    -----------------------------------------------------------------------


    Psi4 started on: Sunday, 09 August 2026 03:43PM

    Process ID: 60631
    Host:       choehoyun-ui-MacBookAir.local
    PSIDATADIR: /Users/hoyoun/micromamba/envs/psi4env/share/psi4
    Memory:     500.0 MiB
    Threads:    8
    Addons:     a̶d̶c̶c̶, a̶m̶b̶i̶t̶, b̶s̶e̶, c̶c̶t̶3̶, c̶f̶o̶u̶r̶, c̶h̶e̶m̶p̶s̶2̶, c̶p̶p̶e̶, d̶d̶x̶, dftd3,
                d̶f̶t̶d̶4̶, dkh, ecpint, einsums, f̶o̶r̶t̶e̶, gauxc, g̶c̶p̶, g̶d̶m̶a̶,
                g̶e̶o̶m̶e̶t̶r̶i̶c̶, g̶p̶u̶_̶d̶f̶c̶c̶, i̶n̶t̶e̶g̶r̶a̶t̶o̶r̶x̶x̶, i̶p̶i̶,
                l̶i̶b̶e̶f̶p̶, m̶d̶i̶, m̶p̶2̶d̶, m̶r̶c̶c̶, ooo, o̶p̶e̶n̶f̶e̶r̶m̶i̶o̶n̶p̶s̶i̶4̶,
                pcmsolver, p̶s̶i̶4̶f̶o̶c̶k̶c̶i̶, p̶s̶i̶x̶a̶s̶, p̶y̶e̶i̶n̶s̶u̶m̶s̶, r̶e̶s̶p̶,
                s̶i̶m̶i̶n̶t̶, s̶n̶s̶m̶p̶2̶, v̶2̶r̶d̶m̶_̶c̶a̶s̶s̶c̶f̶

  ==> Input File <==

--------------------------------------------------------------------------
memory 3 GB
molecule mol {
0 1
O -2.78186487855658 0.81837838240626 1.83424325227098
C -3.27286488097318 0.92837838294765 0.73524324686195
O -4.09686488502872 1.93937838792357 0.38724324514917
H -4.19086488549137 2.48737839062070 1.18124324905706
C -3.05186487988546 -0.00362162163945 -0.42075675882763
H -2.63786487784785 0.57037838118566 -1.25475676293239
H -4.01586488463006 -0.38362162350972 -0.76075676050103
N -2.18186487560352 -1.07262162690083 -0.02275675686876
H -1.69686487321646 -1.02762162667935 0.86724324751162
C -1.87086487407284 -2.04362163167987 -0.91175676124422
O -2.35786487646975 -2.10962163200471 -2.03575676677630
C -0.84686486903294 -3.04762163662134 -0.39975675872427
H -0.79686486878686 -3.86062164062274 -1.11675676225318
H -1.15386487054393 -3.42962163850145 0.57424324606954
N 0.46613513742935 -2.45162163368796 -0.26275675804999
H 1.18313514095826 -2.55962163421951 -0.96575676151000
C 0.81713513915689 -1.75362163025255 0.83024324732952
O 0.05513513540650 -1.53662162918453 1.77624325198552
C 2.26313514627378 -1.25962162782120 0.83424324734920
N 2.86713514924654 -1.42362162862837 -0.48675675915246
H 2.65013514817851 -0.61262162463681 -1.05775676196280
H 3.87413515420277 -1.46262162882032 -0.40775675876364
H 2.78913514886264 -1.92362163108926 1.52424325074523
C 2.32113514655925 0.16837837920710 1.40924325017922
H 1.82913514413773 0.16137837917264 2.38124325496319
H 3.37113515172711 0.43137838050153 1.55724325090765
C 1.66713514334041 1.16637838411903 0.49824324569549
C 0.30613513664186 1.46937838561033 0.62424324631563
H -0.26686486617831 1.01737838338569 1.42324325024813
C -0.30186486635058 2.36537839002024 -0.25175675799585
H -1.34786487149875 2.61637839125561 -0.12975675739539
C 0.43213513726201 2.96137839295362 -1.27775676304559
H -0.04486486508568 3.65537839636934 -1.95575676638256
C 1.78813514393594 2.67437839154107 -1.40775676368542
H 2.37213514681026 3.14637839386415 -2.18675676751949
C 2.39913514694314 1.78837838718038 -0.52075675931981
H 3.46313515217991 1.59637838623540 -0.60375675972831
units angstrom
no_reorient
no_com
}
set basis def2-TZVP
set scf_type df
set freeze_core true
set e_convergence 8
energy('b3lyp-d3bj')
--------------------------------------------------------------------------

  Memory set to   2.794 GiB by Python driver.

Scratch directory: /Users/hoyoun/Documents/Yonsei_AX_Camp/(진짜_이게_최종)/calibration/dft_work/_scratch/470/
   => Libint2 <=

    Primary   basis highest AM E, G, H:  7, 6, 3
    Auxiliary basis highest AM E, G, H:  7, 7, 4
    Onebody   basis highest AM E, G, H:  -, -, -
    Solid Harmonics ordering:            Gaussian

*** tstart() called on choehoyun-ui-MacBookAir.local
*** at Sun Aug  9 15:43:13 2026

   => Loading Basis Set <=

    Name: DEF2-TZVP
    Role: ORBITAL
    Keyword: BASIS
    atoms 1, 3, 11, 18                                           entry O          line   189 file /Users/hoyoun/micromamba/envs/psi4env/share/psi4/basis/def2-tzvp.gbs 
    atoms 2, 5, 10, 12, 17, 19, 24, 27-28, 30, 32, 34, 36        entry C          line   123 file /Users/hoyoun/micromamba/envs/psi4env/share/psi4/basis/def2-tzvp.gbs 
    atoms 4, 6-7, 9, 13-14, 16, 21-23, 25-26, 29, 31, 33, 35, 37 entry H          line    15 file /Users/hoyoun/micromamba/envs/psi4env/share/psi4/basis/def2-tzvp.gbs 
    atoms 8, 15, 20                                              entry N          line   156 file /Users/hoyoun/micromamba/envs/psi4env/share/psi4/basis/def2-tzvp.gbs 

   => B3LYP-D3(BJ): Empirical Dispersion <=

    Grimme's -D3 (BJ-damping) Dispersion Correction
    Grimme S.; Ehrlich S.; Goerigk L. (2011), J. Comput. Chem., 32: 1456

        s6 =       1.000000
        s8 =       1.988900
        a1 =       0.398100
        a2 =       4.421100


         ---------------------------------------------------------
                                   SCF
               by Justin Turney, Rob Parrish, Andy Simmonett
                          and Daniel G. A. Smith
                              RKS Reference
                        8 Threads,   2861 MiB Core
         ---------------------------------------------------------

  ==> Geometry <==

    Molecular point group: c1
    Full point group: C1

    Geometry (in Angstrom), charge = 0, multiplicity = 1:

       Center              X                  Y                   Z               Mass       
    ------------   -----------------  -----------------  -----------------  -----------------
         O           -2.781864878557     0.818378382406     1.834243252271    15.994914619570
         C           -3.272864880973     0.928378382948     0.735243246862    12.000000000000
         O           -4.096864885029     1.939378387924     0.387243245149    15.994914619570
         H           -4.190864885491     2.487378390621     1.181243249057     1.007825032230
         C           -3.051864879885    -0.003621621639    -0.420756758828    12.000000000000
         H           -2.637864877848     0.570378381186    -1.254756762932     1.007825032230
         H           -4.015864884630    -0.383621623510    -0.760756760501     1.007825032230
         N           -2.181864875604    -1.072621626901    -0.022756756869    14.003074004430
         H           -1.696864873216    -1.027621626679     0.867243247512     1.007825032230
         C           -1.870864874073    -2.043621631680    -0.911756761244    12.000000000000
         O           -2.357864876470    -2.109621632005    -2.035756766776    15.994914619570
         C           -0.846864869033    -3.047621636621    -0.399756758724    12.000000000000
         H           -0.796864868787    -3.860621640623    -1.116756762253     1.007825032230
         H           -1.153864870544    -3.429621638501     0.574243246070     1.007825032230
         N            0.466135137429    -2.451621633688    -0.262756758050    14.003074004430
         H            1.183135140958    -2.559621634220    -0.965756761510     1.007825032230
         C            0.817135139157    -1.753621630253     0.830243247330    12.000000000000
         O            0.055135135407    -1.536621629185     1.776243251986    15.994914619570
         C            2.263135146274    -1.259621627821     0.834243247349    12.000000000000
         N            2.867135149247    -1.423621628628    -0.486756759152    14.003074004430
         H            2.650135148179    -0.612621624637    -1.057756761963     1.007825032230
         H            3.874135154203    -1.462621628820    -0.407756758764     1.007825032230
         H            2.789135148863    -1.923621631089     1.524243250745     1.007825032230
         C            2.321135146559     0.168378379207     1.409243250179    12.000000000000
         H            1.829135144138     0.161378379173     2.381243254963     1.007825032230
         H            3.371135151727     0.431378380502     1.557243250908     1.007825032230
         C            1.667135143340     1.166378384119     0.498243245695    12.000000000000
         C            0.306135136642     1.469378385610     0.624243246316    12.000000000000
         H           -0.266864866178     1.017378383386     1.423243250248     1.007825032230
         C           -0.301864866351     2.365378390020    -0.251756757996    12.000000000000
         H           -1.347864871499     2.616378391256    -0.129756757395     1.007825032230
         C            0.432135137262     2.961378392954    -1.277756763046    12.000000000000
         H           -0.044864865086     3.655378396369    -1.955756766383     1.007825032230
         C            1.788135143936     2.674378391541    -1.407756763685    12.000000000000
         H            2.372135146810     3.146378393864    -2.186756767519     1.007825032230
         C            2.399135146943     1.788378387180    -0.520756759320    12.000000000000
         H            3.463135152180     1.596378386235    -0.603756759728     1.007825032230

  Running in c1 symmetry.

  Rotational constants: A =      0.01317  B =      0.01009  C =      0.00731 [cm^-1]
  Rotational constants: A =    394.80294  B =    302.40009  C =    219.22165 [MHz]
  Nuclear repulsion = 1642.108575036086222

  Charge       = 0
  Multiplicity = 1
  Electrons    = 148
  Nalpha       = 74
  Nbeta        = 74

  ==> Algorithm <==

  SCF Algorithm Type is DF.
  DIIS enabled.
  MOM disabled.
  Fractional occupation disabled.
  Guess Type is SAD.
  Energy threshold   = 1.00e-08
  Density threshold  = 1.00e-06
  Integral threshold = 1.00e-12

  ==> Primary Basis <==

  Basis Set: DEF2-TZVP
    Blend: DEF2-TZVP
    Number of shells: 288
    Number of basis functions: 722
    Number of Cartesian functions: 822
    Spherical Harmonics?: true
    Max angular momentum: 3

  ==> DFT Potential <==

   => LibXC <=

    Version 7.1.2
    S. Lehtola, C. Steigemann, M. J. T. Oliveira, and M. A. L. Marques,  SoftwareX 7, 1–5 (2018) (10.1016/j.softx.2017.11.002)

   => Composite Functional: B3LYP-D3BJ2B <= 

    B3LYP-d3bj2b Hyb-GGA Exchange-Correlation Functional

    P. J. Stephens, F. J. Devlin, C. F. Chabalowski, and M. J. Frisch,  J. Phys. Chem. 98, 11623 (1994) (10.1021/j100096a001)

    Deriv               =              1
    GGA                 =           TRUE
    Meta                =          FALSE

    Exchange Hybrid     =           TRUE
    MP2 Hybrid          =          FALSE

   => Exchange Functionals <=

    0.0800   Slater exchange
    0.7200         Becke 88

   => Exact (HF) Exchange <=

    0.2000               HF 

   => Correlation Functionals <=

    0.1900   Vosko, Wilk & Nusair (VWN5_RPA)
    0.8100   Lee, Yang & Parr

   => LibXC Density Thresholds  <==

    XC_HYB_GGA_XC_B3LYP:  1.00E-15 

   => Molecular Quadrature <=

    Radial Scheme          =       TREUTLER
    Pruning Scheme         =           NONE
    Nuclear Scheme         =       TREUTLER

    Blocking Scheme        =         OCTREE
    BS radius alpha        =              1
    Pruning alpha          =              1
    Radial Points          =             75
    Spherical Points       =            302
    Total Points           =         758255
    Total Blocks           =           5430
    Max Points             =            256
    Max Functions          =            559
    Weights Tolerance      =       1.00E-15

   => Loading Basis Set <=

    Name: (DEF2-TZVP AUX)
    Role: JKFIT
    Keyword: DF_BASIS_SCF
    atoms 1, 3, 11, 18                                           entry O          line   318 file /Users/hoyoun/micromamba/envs/psi4env/share/psi4/basis/def2-universal-jkfit.gbs 
    atoms 2, 5, 10, 12, 17, 19, 24, 27-28, 30, 32, 34, 36        entry C          line   198 file /Users/hoyoun/micromamba/envs/psi4env/share/psi4/basis/def2-universal-jkfit.gbs 
    atoms 4, 6-7, 9, 13-14, 16, 21-23, 25-26, 29, 31, 33, 35, 37 entry H          line    18 file /Users/hoyoun/micromamba/envs/psi4env/share/psi4/basis/def2-universal-jkfit.gbs 
    atoms 8, 15, 20                                              entry N          line   258 file /Users/hoyoun/micromamba/envs/psi4env/share/psi4/basis/def2-universal-jkfit.gbs 

  ==> Integral Setup <==

  ==> DiskDFJK: Density-Fitted J/K Matrices <==

    J tasked:                  Yes
    K tasked:                  Yes
    wK tasked:                  No
    OpenMP threads:              8
    Integrals threads:           8
    Memory [MiB]:             1931
    Algorithm:                Disk
    Integral Cache:           NONE
    Schwarz Cutoff:          1E-12
    Fitting Condition:       1E-10

   => Auxiliary Basis Set <=

  Basis Set: (DEF2-TZVP AUX)
    Blend: DEF2-UNIVERSAL-JKFIT
    Number of shells: 602
    Number of basis functions: 1820
    Number of Cartesian functions: 2148
    Spherical Harmonics?: true
    Max angular momentum: 4

  Cached 2.8% of DFT collocation blocks in 0.215 [GiB].

  Minimum eigenvalue in the overlap matrix is 6.7688898755E-06.
  Reciprocal condition number of the overlap matrix is 6.2749012988E-07.
    Using symmetric orthogonalization.

  ==> Pre-Iterations <==

  SCF Guess: Superposition of Atomic Densities via on-the-fly atomic UHF (no occupation information).

   -------------------------
    Irrep   Nso     Nmo    
   -------------------------
     A        722     722 
   -------------------------
    Total     722     722
   -------------------------

  ==> Iterations <==

                           Total Energy        Delta E     RMS |[F,P]|

   @DF-RKS iter SAD:  -970.43891993065040   -9.70439e+02   0.00000e+00 
   @DF-RKS iter   1:  -969.82725160559710    6.11668e-01   2.52565e-03 DIIS/ADIIS
   @DF-RKS iter   2:  -968.74078643898088    1.08647e+00   3.30230e-03 DIIS/ADIIS
   @DF-RKS iter   3:  -971.23330126395524   -2.49251e+00   5.25415e-04 DIIS/ADIIS
   @DF-RKS iter   4:  -971.27309024543968   -3.97890e-02   3.14847e-04 DIIS/ADIIS
   @DF-RKS iter   5:  -971.29194761569488   -1.88574e-02   9.42829e-05 DIIS
   @DF-RKS iter   6:  -971.29370538237981   -1.75777e-03   2.28925e-05 DIIS
   @DF-RKS iter   7:  -971.29379809850434   -9.27161e-05   9.65497e-06 DIIS
   @DF-RKS iter   8:  -971.29381748889739   -1.93904e-05   3.06883e-06 DIIS
   @DF-RKS iter   9:  -971.29381923332505   -1.74443e-06   9.29920e-07 DIIS
   @DF-RKS iter  10:  -971.29381939215307   -1.58828e-07   3.75466e-07 DIIS
   @DF-RKS iter  11:  -971.29381942498082   -3.28278e-08   1.18039e-07 DIIS
   @DF-RKS iter  12:  -971.29381942824102   -3.26020e-09   3.30701e-08 DIIS
  Energy and wave function converged.


  ==> Post-Iterations <==

   Electrons on quadrature grid:
      Ntotal   =  148.0000637618 ; deviation = 6.376e-05 

    Orbital Energies [Eh]
    ---------------------

    Doubly Occupied:                                                      

       1A    -19.194266     2A    -19.136225     3A    -19.099447  
       4A    -19.091101     5A    -14.350199     6A    -14.337082  
       7A    -14.321854     8A    -10.324582     9A    -10.276791  
      10A    -10.269636    11A    -10.227248    12A    -10.225550  
      13A    -10.217924    14A    -10.190292    15A    -10.184046  
      16A    -10.183498    17A    -10.182599    18A    -10.182181  
      19A    -10.181457    20A    -10.176038    21A     -1.130799  
      22A     -1.049230    23A     -1.041801    24A     -1.035188  
      25A     -0.943292    26A     -0.929893    27A     -0.913053  
      28A     -0.865894    29A     -0.791146    30A     -0.777867  
      31A     -0.754622    32A     -0.743214    33A     -0.722686  
      34A     -0.658906    35A     -0.634262    36A     -0.616290  
      37A     -0.600042    38A     -0.589656    39A     -0.585593  
      40A     -0.554465    41A     -0.528929    42A     -0.519943  
      43A     -0.512864    44A     -0.508961    45A     -0.502227  
      46A     -0.495955    47A     -0.481793    48A     -0.476194  
      49A     -0.470073    50A     -0.464119    51A     -0.441977  
      52A     -0.440678    53A     -0.432810    54A     -0.429753  
      55A     -0.423078    56A     -0.420850    57A     -0.412673  
      58A     -0.404983    59A     -0.401002    60A     -0.382398  
      61A     -0.381966    62A     -0.372329    63A     -0.369538  
      64A     -0.352264    65A     -0.345797    66A     -0.342686  
      67A     -0.306395    68A     -0.292295    69A     -0.287898  
      70A     -0.266770    71A     -0.264207    72A     -0.263906  
      73A     -0.253832    74A     -0.249729  

    Virtual:                                                              

      75A     -0.025626    76A     -0.023840    77A     -0.015275  
      78A     -0.003565    79A      0.009849    80A      0.017623  
      81A      0.027547    82A      0.048613    83A      0.051176  
      84A      0.059337    85A      0.066463    86A      0.075922  
      87A      0.081689    88A      0.086436    89A      0.094353  
      90A      0.099899    91A      0.109737    92A      0.115415  
      93A      0.119390    94A      0.130219    95A      0.132065  
      96A      0.132587    97A      0.143880    98A      0.149556  
      99A      0.154429   100A      0.160521   101A      0.165931  
     102A      0.171032   103A      0.177741   104A      0.183334  
     105A      0.189728   106A      0.193174   107A      0.199285  
     108A      0.210527   109A      0.216069   110A      0.217066  
     111A      0.223866   112A      0.228958   113A      0.233527  
     114A      0.241819   115A      0.245726   116A      0.249055  
     117A      0.256554   118A      0.262535   119A      0.268309  
     120A      0.274806   121A      0.278072   122A      0.289051  
     123A      0.293513   124A      0.300397   125A      0.301004  
     126A      0.306675   127A      0.310672   128A      0.316644  
     129A      0.321780   130A      0.328940   131A      0.336482  
     132A      0.338154   133A      0.341250   134A      0.343683  
     135A      0.349596   136A      0.350419   137A      0.362400  
     138A      0.368827   139A      0.371966   140A      0.376275  
     141A      0.382182   142A      0.387172   143A      0.396779  
     144A      0.398469   145A      0.400077   146A      0.405412  
     147A      0.410135   148A      0.412468   149A      0.415564  
     150A      0.421617   151A      0.427965   152A      0.430320  
     153A      0.435739   154A      0.440682   155A      0.442333  
     156A      0.446784   157A      0.455503   158A      0.461463  
     159A      0.464269   160A      0.464477   161A      0.474571  
     162A      0.480868   163A      0.485077   164A      0.488438  
     165A      0.492160   166A      0.498747   167A      0.507350  
     168A      0.511234   169A      0.513413   170A      0.517294  
     171A      0.518763   172A      0.528344   173A      0.532720  
     174A      0.543322   175A      0.546795   176A      0.553263  
     177A      0.558434   178A      0.560783   179A      0.568021  
     180A      0.573673   181A      0.585890   182A      0.592281  
     183A      0.604516   184A      0.610366   185A      0.616134  
     186A      0.628762   187A      0.630611   188A      0.639904  
     189A      0.644788   190A      0.652783   191A      0.667527  
     192A      0.669947   193A      0.678189   194A      0.684467  
     195A      0.687116   196A      0.689280   197A      0.698344  
     198A      0.704467   199A      0.714289   200A      0.721282  
     201A      0.732186   202A      0.737668   203A      0.741608  
     204A      0.745386   205A      0.758329   206A      0.763843  
     207A      0.780626   208A      0.782815   209A      0.790043  
     210A      0.790711   211A      0.803143   212A      0.809130  
     213A      0.815864   214A      0.818919   215A      0.833124  
     216A      0.845946   217A      0.849835   218A      0.865715  
     219A      0.871627   220A      0.874197   221A      0.885073  
     222A      0.889530   223A      0.890578   224A      0.906472  
     225A      0.915477   226A      0.919262   227A      0.933203  
     228A      0.936917   229A      0.953897   230A      0.960341  
     231A      0.971678   232A      0.976502   233A      0.980270  
     234A      0.993411   235A      1.010884   236A      1.020218  
     237A      1.031577   238A      1.040020   239A      1.045652  
     240A      1.049675   241A      1.056427   242A      1.066537  
     243A      1.080746   244A      1.089600   245A      1.096604  
     246A      1.100492   247A      1.112504   248A      1.118500  
     249A      1.128163   250A      1.139722   251A      1.148533  
     252A      1.155549   253A      1.158220   254A      1.179850  
     255A      1.199554   256A      1.214336   257A      1.221535  
     258A      1.223708   259A      1.232868   260A      1.248642  
     261A      1.251767   262A      1.259831   263A      1.269784  
     264A      1.280793   265A      1.283298   266A      1.294650  
     267A      1.305727   268A      1.310793   269A      1.314051  
     270A      1.324903   271A      1.331739   272A      1.336808  
     273A      1.347576   274A      1.357768   275A      1.358087  
     276A      1.366204   277A      1.382485   278A      1.405807  
     279A      1.406098   280A      1.413166   281A      1.420849  
     282A      1.424861   283A      1.442493   284A      1.452218  
     285A      1.455948   286A      1.460860   287A      1.472382  
     288A      1.475175   289A      1.478534   290A      1.486589  
     291A      1.491429   292A      1.497210   293A      1.514437  
     294A      1.517931   295A      1.527204   296A      1.536393  
     297A      1.566001   298A      1.568073   299A      1.573518  
     300A      1.578439   301A      1.582381   302A      1.594964  
     303A      1.602181   304A      1.604331   305A      1.609556  
     306A      1.614699   307A      1.621170   308A      1.631159  
     309A      1.637879   310A      1.642846   311A      1.652546  
     312A      1.663002   313A      1.677285   314A      1.684123  
     315A      1.689698   316A      1.693717   317A      1.702048  
     318A      1.709771   319A      1.724564   320A      1.727217  
     321A      1.730736   322A      1.749574   323A      1.764834  
     324A      1.769731   325A      1.778112   326A      1.783548  
     327A      1.795926   328A      1.805402   329A      1.821791  
     330A      1.826743   331A      1.830493   332A      1.839614  
     333A      1.852771   334A      1.858155   335A      1.871445  
     336A      1.876902   337A      1.882523   338A      1.890123  
     339A      1.895159   340A      1.901875   341A      1.916470  
     342A      1.943361   343A      1.950773   344A      1.961499  
     345A      1.966344   346A      1.977102   347A      1.987854  
     348A      1.998582   349A      2.008277   350A      2.023099  
     351A      2.033587   352A      2.043951   353A      2.051356  
     354A      2.054457   355A      2.073048   356A      2.077429  
     357A      2.081699   358A      2.085902   359A      2.098698  
     360A      2.108202   361A      2.114434   362A      2.132107  
     363A      2.136865   364A      2.145721   365A      2.150909  
     366A      2.154758   367A      2.168572   368A      2.173166  
     369A      2.186970   370A      2.190349   371A      2.206085  
     372A      2.208984   373A      2.219620   374A      2.229667  
     375A      2.232431   376A      2.240567   377A      2.250865  
     378A      2.263849   379A      2.266640   380A      2.281196  
     381A      2.301654   382A      2.319372   383A      2.330435  
     384A      2.339187   385A      2.352074   386A      2.362385  
     387A      2.368393   388A      2.400013   389A      2.401910  
     390A      2.409368   391A      2.425384   392A      2.427654  
     393A      2.444852   394A      2.453640   395A      2.464349  
     396A      2.472462   397A      2.496842   398A      2.503349  
     399A      2.511726   400A      2.518055   401A      2.524785  
     402A      2.530155   403A      2.535215   404A      2.553036  
     405A      2.560384   406A      2.564551   407A      2.584621  
     408A      2.591534   409A      2.599382   410A      2.603793  
     411A      2.615612   412A      2.620102   413A      2.628943  
     414A      2.631063   415A      2.646718   416A      2.652232  
     417A      2.656118   418A      2.657676   419A      2.664206  
     420A      2.671199   421A      2.683276   422A      2.690709  
     423A      2.700278   424A      2.706765   425A      2.711550  
     426A      2.719164   427A      2.732112   428A      2.747385  
     429A      2.755180   430A      2.761915   431A      2.768392  
     432A      2.779649   433A      2.785365   434A      2.788898  
     435A      2.802399   436A      2.811649   437A      2.817836  
     438A      2.822854   439A      2.830499   440A      2.843281  
     441A      2.851540   442A      2.859144   443A      2.870994  
     444A      2.875854   445A      2.886979   446A      2.895347  
     447A      2.906129   448A      2.916694   449A      2.922518  
     450A      2.936406   451A      2.941442   452A      2.953519  
     453A      2.959130   454A      2.965207   455A      2.967814  
     456A      2.993408   457A      3.003573   458A      3.007710  
     459A      3.019651   460A      3.034874   461A      3.039504  
     462A      3.042046   463A      3.048574   464A      3.058291  
     465A      3.061879   466A      3.071864   467A      3.077505  
     468A      3.091291   469A      3.102537   470A      3.111392  
     471A      3.117880   472A      3.123703   473A      3.127945  
     474A      3.137945   475A      3.140168   476A      3.144122  
     477A      3.154276   478A      3.165307   479A      3.168208  
     480A      3.170568   481A      3.178466   482A      3.186598  
     483A      3.194970   484A      3.205517   485A      3.207265  
     486A      3.218625   487A      3.224196   488A      3.231774  
     489A      3.234894   490A      3.240306   491A      3.251702  
     492A      3.259088   493A      3.259321   494A      3.274246  
     495A      3.289398   496A      3.291715   497A      3.294581  
     498A      3.298141   499A      3.302668   500A      3.317736  
     501A      3.322075   502A      3.325575   503A      3.338510  
     504A      3.344707   505A      3.348865   506A      3.356184  
     507A      3.361342   508A      3.370794   509A      3.385465  
     510A      3.391638   511A      3.403977   512A      3.404505  
     513A      3.413262   514A      3.425791   515A      3.431183  
     516A      3.435283   517A      3.447499   518A      3.452797  
     519A      3.464904   520A      3.479065   521A      3.481606  
     522A      3.488327   523A      3.491572   524A      3.503112  
     525A      3.506323   526A      3.517947   527A      3.527517  
     528A      3.531313   529A      3.544432   530A      3.558010  
     531A      3.580618   532A      3.584710   533A      3.593680  
     534A      3.618654   535A      3.627304   536A      3.643342  
     537A      3.649890   538A      3.686440   539A      3.708898  
     540A      3.715858   541A      3.722465   542A      3.733268  
     543A      3.736669   544A      3.750672   545A      3.758877  
     546A      3.782269   547A      3.796173   548A      3.798185  
     549A      3.804110   550A      3.823611   551A      3.831821  
     552A      3.842124   553A      3.858204   554A      3.880345  
     555A      3.884874   556A      3.895376   557A      3.912770  
     558A      3.924831   559A      3.930901   560A      3.939053  
     561A      3.946459   562A      3.961752   563A      3.973827  
     564A      3.990624   565A      4.031699   566A      4.033306  
     567A      4.057477   568A      4.076009   569A      4.079827  
     570A      4.095277   571A      4.112407   572A      4.134372  
     573A      4.146817   574A      4.163286   575A      4.176494  
     576A      4.193781   577A      4.203870   578A      4.209494  
     579A      4.228553   580A      4.231417   581A      4.246380  
     582A      4.252741   583A      4.263160   584A      4.273644  
     585A      4.302469   586A      4.313023   587A      4.319127  
     588A      4.347576   589A      4.358505   590A      4.367211  
     591A      4.383031   592A      4.391224   593A      4.413092  
     594A      4.418961   595A      4.469897   596A      4.479535  
     597A      4.504090   598A      4.507114   599A      4.527063  
     600A      4.559732   601A      4.574356   602A      4.596214  
     603A      4.608211   604A      4.667976   605A      4.686018  
     606A      4.700356   607A      4.711647   608A      4.723027  
     609A      4.727606   610A      4.738360   611A      4.750470  
     612A      4.765563   613A      4.788080   614A      4.815465  
     615A      4.823930   616A      4.841027   617A      4.865552  
     618A      4.875613   619A      4.883772   620A      4.906033  
     621A      4.953849   622A      4.968401   623A      4.982551  
     624A      5.021193   625A      5.025355   626A      5.049792  
     627A      5.089028   628A      5.109173   629A      5.120653  
     630A      5.126181   631A      5.138220   632A      5.167152  
     633A      5.177911   634A      5.185213   635A      5.191701  
     636A      5.195010   637A      5.204383   638A      5.224698  
     639A      5.230512   640A      5.235233   641A      5.251201  
     642A      5.284469   643A      5.298848   644A      5.314983  
     645A      5.337170   646A      5.343966   647A      5.366138  
     648A      5.369166   649A      5.376866   650A      5.394219  
     651A      5.428484   652A      5.448967   653A      5.456746  
     654A      5.473900   655A      5.495350   656A      5.510256  
     657A      5.513137   658A      5.570592   659A      5.591383  
     660A      5.636790   661A      5.643533   662A      5.666993  
     663A      5.679623   664A      5.694102   665A      5.790113  
     666A      5.819581   667A      5.825547   668A      5.839418  
     669A      5.873833   670A      5.880655   671A      5.940136  
     672A      5.975240   673A      6.130551   674A      6.152428  
     675A      6.170124   676A      6.194615   677A      6.299293  
     678A      6.331718   679A      6.348667   680A      6.370686  
     681A      6.411947   682A      6.424557   683A      6.483859  
     684A      6.517265   685A      6.558105   686A      6.585293  
     687A      6.665215   688A      6.690792   689A      6.720562  
     690A      6.738527   691A      6.761255   692A      6.826930  
     693A      6.838277   694A      6.882956   695A      6.891243  
     696A      7.075351   697A      7.083098   698A      7.102359  
     699A      7.112414   700A      7.125349   701A      7.128660  
     702A      7.327820   703A     22.107614   704A     22.512024  
     705A     22.559744   706A     22.568589   707A     22.594083  
     708A     22.611706   709A     22.682746   710A     22.746739  
     711A     22.804799   712A     23.207794   713A     23.226463  
     714A     23.347349   715A     23.408797   716A     32.079488  
     717A     32.458501   718A     32.565553   719A     43.841425  
     720A     43.886988   721A     43.910021   722A     44.034334  

    Final Occupation by Irrep:
              A 
    DOCC [    74 ]
    NA   [    74 ]
    NB   [    74 ]

  @DF-RKS Final Energy:  -971.29381942824102

   => Energetics <=

    Nuclear Repulsion Energy =           1642.1085750360862221
    One-Electron Energy =               -4586.1430073385708965
    Two-Electron Energy =                2079.8696291076125817
    DFT Exchange-Correlation Energy =    -107.0493694297445018
    Empirical Dispersion Energy =          -0.0796468036242129
    VV10 Nonlocal Energy =                  0.0000000000000000
    Total Energy =                       -971.2938194282407949

Computation Completed


Properties will be evaluated at   0.000000,   0.000000,   0.000000 [a0]

Properties computed using the SCF density matrix


 Multipole Moments:

 ------------------------------------------------------------------------------------
     Multipole            Electronic (a.u.)      Nuclear  (a.u.)        Total (a.u.)
 ------------------------------------------------------------------------------------

 L = 1.  Multiply by 2.5417464519 to convert [e a0] to [Debye]
 Dipole X            :         84.6111471          -83.3614890            1.2496581
 Dipole Y            :         17.2977898          -16.6995099            0.5982799
 Dipole Z            :        -14.7650737           14.7512022           -0.0138715
 Magnitude           :                                                    1.3855601

 ------------------------------------------------------------------------------------

*** tstop() called on choehoyun-ui-MacBookAir.local at Sun Aug  9 15:45:05 2026
Module time:
	user time   =     736.92 seconds =      12.28 minutes
	system time =      14.21 seconds =       0.24 minutes
	total time  =        112 seconds =       1.87 minutes
Total time:
	user time   =     736.92 seconds =      12.28 minutes
	system time =      14.21 seconds =       0.24 minutes
	total time  =        112 seconds =       1.87 minutes

    Psi4 stopped on: Sunday, 09 August 2026 03:45PM
    Psi4 wall time for execution: 0:01:52.16

*** Psi4 exiting successfully. Buy a developer a beer!
