
    -----------------------------------------------------------------------
          Psi4: An Open-Source Ab Initio Electronic Structure Package
                               Psi4 1.11 release

                         Git: Rev {} zzzzzzz 


    D. G. A. Smith, L. A. Burns, A. C. Simmonett, R. M. Parrish,
    M. C. Schieber, R. Galvelis, P. Kraus, H. Kruse, R. Di Remigio,
    A. Alenaizan, A. M. James, S. Lehtola, J. P. Misiewicz, M. Scheurer,
    R. A. Shaw, J. B. Schriber, Y. Xie, Z. L. Glick, D. A. Sirianni,
    J. S. O'Brien, J. M. Waldrop, A. Kumar, E. G. Hohenstein,
    B. P. Pritchard, B. R. Brooks, H. F. Schaefer III, A. Yu. Sokolov,
    K. Patkowski, A. E. DePrince III, U. Bozkaya, R. A. King,
    F. A. Evangelista, J. M. Turney, T. D. Crawford, C. D. Sherrill,
    J. Chem. Phys. 152(18) 184108 (2020). https://doi.org/10.1063/5.0006002

                            Additional Code Authors
    E. T. Seidl, C. L. Janssen, E. F. Valeev, M. L. Leininger,
    J. F. Gonthier, R. M. Richard, H. R. McAlexander, M. Saitow, X. Wang,
    P. Verma, M. H. Lechner, A. Jiang, S. Behnle, A. G. Heide,
    M. F. Herbst, D. L. Poole, T. Győri, E. C. Mitchell, J. P. Pederson,
    and A. M. Wallace

             Previous Authors, Complete List of Code Contributors,
                       and Citations for Specific Modules
    https://github.com/psi4/psi4/blob/master/codemeta.json
    https://github.com/psi4/psi4/graphs/contributors
    https://psicode.org/psi4manual/master/introduction.html#citing-psifour

    -----------------------------------------------------------------------


    Psi4 started on: Monday, 10 August 2026 06:36PM

    Process ID: 75761
    Host:       choehoyun-ui-MacBookAir.local
    PSIDATADIR: /Users/hoyoun/micromamba/envs/psi4env/share/psi4
    Memory:     500.0 MiB
    Threads:    8
    Addons:     a̶d̶c̶c̶, a̶m̶b̶i̶t̶, b̶s̶e̶, c̶c̶t̶3̶, c̶f̶o̶u̶r̶, c̶h̶e̶m̶p̶s̶2̶, c̶p̶p̶e̶, d̶d̶x̶, dftd3,
                d̶f̶t̶d̶4̶, dkh, ecpint, einsums, f̶o̶r̶t̶e̶, gauxc, g̶c̶p̶, g̶d̶m̶a̶,
                g̶e̶o̶m̶e̶t̶r̶i̶c̶, g̶p̶u̶_̶d̶f̶c̶c̶, i̶n̶t̶e̶g̶r̶a̶t̶o̶r̶x̶x̶, i̶p̶i̶,
                l̶i̶b̶e̶f̶p̶, m̶d̶i̶, m̶p̶2̶d̶, m̶r̶c̶c̶, ooo, o̶p̶e̶n̶f̶e̶r̶m̶i̶o̶n̶p̶s̶i̶4̶,
                pcmsolver, p̶s̶i̶4̶f̶o̶c̶k̶c̶i̶, p̶s̶i̶x̶a̶s̶, p̶y̶e̶i̶n̶s̶u̶m̶s̶, r̶e̶s̶p̶,
                s̶i̶m̶i̶n̶t̶, s̶n̶s̶m̶p̶2̶, v̶2̶r̶d̶m̶_̶c̶a̶s̶s̶c̶f̶

  ==> Input File <==

--------------------------------------------------------------------------
memory 3 GB
molecule mol {
0 1
C -1.88027284836666 -0.32890700214610 -0.00123733306702
C -0.56283016041534 0.42581035003390 -0.01210492622301
N 0.56180559264138 -0.34443522014577 -0.03231723012477
C 1.89162422780691 0.24177094852574 0.00269617871241
O -0.51591930560519 1.64564461748575 -0.01202984869371
H -2.47089694606636 -0.01200467311518 -0.86172296666779
H -2.43450218421469 -0.05182872334997 0.89675170514652
H -1.76651015517853 -1.41389020454338 -0.02853983321747
H 0.47046154301929 -1.34374113067748 0.03376858477225
H 1.94037266978690 1.07983019633156 -0.69174622440949
H 2.62057009233838 -0.51223898292707 -0.29279093785117
H 2.14609747425391 0.61398982452799 0.99927283162324
units angstrom
no_reorient
no_com
}
set basis def2-SVP
set scf_type df
set freeze_core true
set e_convergence 8
energy('b3lyp-d3bj')
--------------------------------------------------------------------------

  Memory set to   2.794 GiB by Python driver.

Scratch directory: /Users/hoyoun/Documents/Yonsei_AX_Camp/(진짜_이게_최종)/calibration/dft_work/_scratch/E30/
   => Libint2 <=

    Primary   basis highest AM E, G, H:  7, 6, 3
    Auxiliary basis highest AM E, G, H:  7, 7, 4
    Onebody   basis highest AM E, G, H:  -, -, -
    Solid Harmonics ordering:            Gaussian

*** tstart() called on choehoyun-ui-MacBookAir.local
*** at Mon Aug 10 18:36:37 2026

   => Loading Basis Set <=

    Name: DEF2-SVP
    Role: ORBITAL
    Keyword: BASIS
    atoms 1-2, 4 entry C          line    90 file /Users/hoyoun/micromamba/envs/psi4env/share/psi4/basis/def2-svp.gbs 
    atoms 3      entry N          line   110 file /Users/hoyoun/micromamba/envs/psi4env/share/psi4/basis/def2-svp.gbs 
    atoms 5      entry O          line   130 file /Users/hoyoun/micromamba/envs/psi4env/share/psi4/basis/def2-svp.gbs 
    atoms 6-12   entry H          line    15 file /Users/hoyoun/micromamba/envs/psi4env/share/psi4/basis/def2-svp.gbs 

   => B3LYP-D3(BJ): Empirical Dispersion <=

    Grimme's -D3 (BJ-damping) Dispersion Correction
    Grimme S.; Ehrlich S.; Goerigk L. (2011), J. Comput. Chem., 32: 1456

        s6 =       1.000000
        s8 =       1.988900
        a1 =       0.398100
        a2 =       4.421100


         ---------------------------------------------------------
                                   SCF
               by Justin Turney, Rob Parrish, Andy Simmonett
                          and Daniel G. A. Smith
                              RKS Reference
                        8 Threads,   2861 MiB Core
         ---------------------------------------------------------

  ==> Geometry <==

    Molecular point group: c1
    Full point group: C1

    Geometry (in Angstrom), charge = 0, multiplicity = 1:

       Center              X                  Y                   Z               Mass       
    ------------   -----------------  -----------------  -----------------  -----------------
         C           -1.880272848367    -0.328907002146    -0.001237333067    12.000000000000
         C           -0.562830160415     0.425810350034    -0.012104926223    12.000000000000
         N            0.561805592641    -0.344435220146    -0.032317230125    14.003074004430
         C            1.891624227807     0.241770948526     0.002696178712    12.000000000000
         O           -0.515919305605     1.645644617486    -0.012029848694    15.994914619570
         H           -2.470896946066    -0.012004673115    -0.861722966668     1.007825032230
         H           -2.434502184215    -0.051828723350     0.896751705147     1.007825032230
         H           -1.766510155179    -1.413890204543    -0.028539833217     1.007825032230
         H            0.470461543019    -1.343741130677     0.033768584772     1.007825032230
         H            1.940372669787     1.079830196332    -0.691746224409     1.007825032230
         H            2.620570092338    -0.512238982927    -0.292790937851     1.007825032230
         H            2.146097474254     0.613989824528     0.999272831623     1.007825032230

  Running in c1 symmetry.

  Rotational constants: A =      0.29113  B =      0.12780  C =      0.09186 [cm^-1]
  Rotational constants: A =   8728.00167  B =   3831.26182  C =   2754.02804 [MHz]
  Nuclear repulsion =  180.011632826612640

  Charge       = 0
  Multiplicity = 1
  Electrons    = 40
  Nalpha       = 20
  Nbeta        = 20

  ==> Algorithm <==

  SCF Algorithm Type is DF.
  DIIS enabled.
  MOM disabled.
  Fractional occupation disabled.
  Guess Type is SAD.
  Energy threshold   = 1.00e-08
  Density threshold  = 1.00e-06
  Integral threshold = 1.00e-12

  ==> Primary Basis <==

  Basis Set: DEF2-SVP
    Blend: DEF2-SVP
    Number of shells: 51
    Number of basis functions: 105
    Number of Cartesian functions: 110
    Spherical Harmonics?: true
    Max angular momentum: 2

  ==> DFT Potential <==

   => LibXC <=

    Version 7.1.2
    S. Lehtola, C. Steigemann, M. J. T. Oliveira, and M. A. L. Marques,  SoftwareX 7, 1–5 (2018) (10.1016/j.softx.2017.11.002)

   => Composite Functional: B3LYP-D3BJ2B <= 

    B3LYP-d3bj2b Hyb-GGA Exchange-Correlation Functional

    P. J. Stephens, F. J. Devlin, C. F. Chabalowski, and M. J. Frisch,  J. Phys. Chem. 98, 11623 (1994) (10.1021/j100096a001)

    Deriv               =              1
    GGA                 =           TRUE
    Meta                =          FALSE

    Exchange Hybrid     =           TRUE
    MP2 Hybrid          =          FALSE

   => Exchange Functionals <=

    0.0800   Slater exchange
    0.7200         Becke 88

   => Exact (HF) Exchange <=

    0.2000               HF 

   => Correlation Functionals <=

    0.1900   Vosko, Wilk & Nusair (VWN5_RPA)
    0.8100   Lee, Yang & Parr

   => LibXC Density Thresholds  <==

    XC_HYB_GGA_XC_B3LYP:  1.00E-15 

   => Molecular Quadrature <=

    Radial Scheme          =       TREUTLER
    Pruning Scheme         =           NONE
    Nuclear Scheme         =       TREUTLER

    Blocking Scheme        =         OCTREE
    BS radius alpha        =              1
    Pruning alpha          =              1
    Radial Points          =             75
    Spherical Points       =            302
    Total Points           =         256155
    Total Blocks           =           1927
    Max Points             =            256
    Max Functions          =            104
    Weights Tolerance      =       1.00E-15

   => Loading Basis Set <=

    Name: (DEF2-SVP AUX)
    Role: JKFIT
    Keyword: DF_BASIS_SCF
    atoms 1-2, 4 entry C          line   198 file /Users/hoyoun/micromamba/envs/psi4env/share/psi4/basis/def2-universal-jkfit.gbs 
    atoms 3      entry N          line   258 file /Users/hoyoun/micromamba/envs/psi4env/share/psi4/basis/def2-universal-jkfit.gbs 
    atoms 5      entry O          line   318 file /Users/hoyoun/micromamba/envs/psi4env/share/psi4/basis/def2-universal-jkfit.gbs 
    atoms 6-12   entry H          line    18 file /Users/hoyoun/micromamba/envs/psi4env/share/psi4/basis/def2-universal-jkfit.gbs 

  ==> Integral Setup <==

  DFHelper Memory: AOs need 0.046 GiB; user supplied 1.494 GiB. 
  SCF_SUBTYPE=INCORE selected. In-core MEM_DF algorithm will be used.
  Using in-core AOs.

  ==> MemDFJK: Density-Fitted J/K Matrices <==

    J tasked:                   Yes
    K tasked:                   Yes
    wK tasked:                   No
    OpenMP threads:               8
    Memory [MiB]:              1529
    Algorithm:                 Core
    Schwarz Cutoff:           1E-12
    Mask sparsity (%):       1.7234
    Fitting Condition:        1E-10

   => Auxiliary Basis Set <=

  Basis Set: (DEF2-SVP AUX)
    Blend: DEF2-UNIVERSAL-JKFIT
    Number of shells: 167
    Number of basis functions: 505
    Number of Cartesian functions: 593
    Spherical Harmonics?: true
    Max angular momentum: 4

  Cached 100.0% of DFT collocation blocks in 0.601 [GiB].

  Minimum eigenvalue in the overlap matrix is 2.9746806219E-03.
  Reciprocal condition number of the overlap matrix is 5.1823772494E-04.
    Using symmetric orthogonalization.

  ==> Pre-Iterations <==

  SCF Guess: Superposition of Atomic Densities via on-the-fly atomic UHF (no occupation information).

   -------------------------
    Irrep   Nso     Nmo    
   -------------------------
     A        105     105 
   -------------------------
    Total     105     105
   -------------------------

  ==> Iterations <==

                           Total Energy        Delta E     RMS |[F,P]|

   @DF-RKS iter SAD:  -247.77943123905277   -2.47779e+02   0.00000e+00 
   @DF-RKS iter   1:  -247.96312679112296   -1.83696e-01   8.60027e-03 ADIIS/DIIS
   @DF-RKS iter   2:  -247.76382587563208    1.99301e-01   1.07858e-02 ADIIS/DIIS
   @DF-RKS iter   3:  -248.32730097178973   -5.63475e-01   2.50990e-03 ADIIS/DIIS
   @DF-RKS iter   4:  -248.35432278942815   -2.70218e-02   6.38902e-04 ADIIS/DIIS
   @DF-RKS iter   5:  -248.35586995348854   -1.54716e-03   2.54399e-04 ADIIS/DIIS
   @DF-RKS iter   6:  -248.35617436061125   -3.04407e-04   3.98837e-05 DIIS
   @DF-RKS iter   7:  -248.35618240235144   -8.04174e-06   5.05976e-06 DIIS
   @DF-RKS iter   8:  -248.35618250308698   -1.00736e-07   2.35645e-06 DIIS
   @DF-RKS iter   9:  -248.35618253352195   -3.04350e-08   3.51599e-07 DIIS
   @DF-RKS iter  10:  -248.35618253418286   -6.60918e-10   6.47767e-08 DIIS
  Energy and wave function converged.


  ==> Post-Iterations <==

   Electrons on quadrature grid:
      Ntotal   =   39.9999964588 ; deviation = -3.541e-06 

    Orbital Energies [Eh]
    ---------------------

    Doubly Occupied:                                                      

       1A    -19.084552     2A    -14.349738     3A    -10.276324  
       4A    -10.219326     5A    -10.190030     6A     -1.013781  
       7A     -0.906410     8A     -0.744010     9A     -0.681370  
      10A     -0.580358    11A     -0.503347    12A     -0.462201  
      13A     -0.458711    14A     -0.423207    15A     -0.406739  
      16A     -0.395544    17A     -0.386714    18A     -0.349444  
      19A     -0.253427    20A     -0.244188  

    Virtual:                                                              

      21A      0.032287    22A      0.042143    23A      0.080227  
      24A      0.094162    25A      0.129957    26A      0.140577  
      27A      0.141499    28A      0.154337    29A      0.186392  
      30A      0.241922    31A      0.277411    32A      0.370355  
      33A      0.413832    34A      0.445687    35A      0.449223  
      36A      0.466418    37A      0.472058    38A      0.541461  
      39A      0.561270    40A      0.589596    41A      0.625816  
      42A      0.647606    43A      0.654984    44A      0.658228  
      45A      0.659493    46A      0.669127    47A      0.673055  
      48A      0.693316    49A      0.711611    50A      0.806744  
      51A      0.821947    52A      0.841717    53A      0.906852  
      54A      1.001155    55A      1.061552    56A      1.089457  
      57A      1.163012    58A      1.174189    59A      1.192445  
      60A      1.225924    61A      1.350719    62A      1.431460  
      63A      1.462213    64A      1.523201    65A      1.528316  
      66A      1.579703    67A      1.619448    68A      1.638352  
      69A      1.713382    70A      1.769957    71A      1.775949  
      72A      1.781764    73A      1.797852    74A      1.809615  
      75A      1.847336    76A      1.881690    77A      1.950455  
      78A      1.955953    79A      2.007896    80A      2.060751  
      81A      2.083864    82A      2.144371    83A      2.187277  
      84A      2.298804    85A      2.326454    86A      2.406027  
      87A      2.425326    88A      2.448805    89A      2.549311  
      90A      2.557692    91A      2.644039    92A      2.678213  
      93A      2.713331    94A      2.769697    95A      2.795267  
      96A      2.890486    97A      2.900320    98A      2.904798  
      99A      2.939045   100A      2.955758   101A      3.131543  
     102A      3.201374   103A      3.272011   104A      3.555861  
     105A      3.668647  

    Final Occupation by Irrep:
              A 
    DOCC [    20 ]
    NA   [    20 ]
    NB   [    20 ]

  @DF-RKS Final Energy:  -248.35618253418286

   => Energetics <=

    Nuclear Repulsion Energy =            180.0116328266126402
    One-Electron Energy =                -692.8539080560827870
    Two-Electron Energy =                 292.3307455031070958
    DFT Exchange-Correlation Energy =     -27.8315958217397821
    Empirical Dispersion Energy =          -0.0130569860800532
    VV10 Nonlocal Energy =                  0.0000000000000000
    Total Energy =                       -248.3561825341828637

Computation Completed


Properties will be evaluated at   0.000000,   0.000000,   0.000000 [a0]

Properties computed using the SCF density matrix


 Multipole Moments:

 ------------------------------------------------------------------------------------
     Multipole            Electronic (a.u.)      Nuclear  (a.u.)        Total (a.u.)
 ------------------------------------------------------------------------------------

 L = 1.  Multiply by 2.5417464519 to convert [e a0] to [Debye]
 Dipole X            :          6.0004369           -5.6653904            0.3350465
 Dipole Y            :        -22.4868066           21.0634023           -1.4234043
 Dipole Z            :          0.6643788           -0.6261470            0.0382318
 Magnitude           :                                                    1.4628047

 ------------------------------------------------------------------------------------

*** tstop() called on choehoyun-ui-MacBookAir.local at Mon Aug 10 18:36:38 2026
Module time:
	user time   =       6.50 seconds =       0.11 minutes
	system time =       0.25 seconds =       0.00 minutes
	total time  =          1 seconds =       0.02 minutes
Total time:
	user time   =       6.50 seconds =       0.11 minutes
	system time =       0.25 seconds =       0.00 minutes
	total time  =          1 seconds =       0.02 minutes

    Psi4 stopped on: Monday, 10 August 2026 06:36PM
    Psi4 wall time for execution: 0:00:01.53

*** Psi4 exiting successfully. Buy a developer a beer!
