
    -----------------------------------------------------------------------
          Psi4: An Open-Source Ab Initio Electronic Structure Package
                               Psi4 1.11 release

                         Git: Rev {} zzzzzzz 


    D. G. A. Smith, L. A. Burns, A. C. Simmonett, R. M. Parrish,
    M. C. Schieber, R. Galvelis, P. Kraus, H. Kruse, R. Di Remigio,
    A. Alenaizan, A. M. James, S. Lehtola, J. P. Misiewicz, M. Scheurer,
    R. A. Shaw, J. B. Schriber, Y. Xie, Z. L. Glick, D. A. Sirianni,
    J. S. O'Brien, J. M. Waldrop, A. Kumar, E. G. Hohenstein,
    B. P. Pritchard, B. R. Brooks, H. F. Schaefer III, A. Yu. Sokolov,
    K. Patkowski, A. E. DePrince III, U. Bozkaya, R. A. King,
    F. A. Evangelista, J. M. Turney, T. D. Crawford, C. D. Sherrill,
    J. Chem. Phys. 152(18) 184108 (2020). https://doi.org/10.1063/5.0006002

                            Additional Code Authors
    E. T. Seidl, C. L. Janssen, E. F. Valeev, M. L. Leininger,
    J. F. Gonthier, R. M. Richard, H. R. McAlexander, M. Saitow, X. Wang,
    P. Verma, M. H. Lechner, A. Jiang, S. Behnle, A. G. Heide,
    M. F. Herbst, D. L. Poole, T. Győri, E. C. Mitchell, J. P. Pederson,
    and A. M. Wallace

             Previous Authors, Complete List of Code Contributors,
                       and Citations for Specific Modules
    https://github.com/psi4/psi4/blob/master/codemeta.json
    https://github.com/psi4/psi4/graphs/contributors
    https://psicode.org/psi4manual/master/introduction.html#citing-psifour

    -----------------------------------------------------------------------


    Psi4 started on: Sunday, 09 August 2026 03:35AM

    Process ID: 52622
    Host:       choehoyun-ui-MacBookAir.local
    PSIDATADIR: /Users/hoyoun/micromamba/envs/psi4env/share/psi4
    Memory:     500.0 MiB
    Threads:    8
    Addons:     a̶d̶c̶c̶, a̶m̶b̶i̶t̶, b̶s̶e̶, c̶c̶t̶3̶, c̶f̶o̶u̶r̶, c̶h̶e̶m̶p̶s̶2̶, c̶p̶p̶e̶, d̶d̶x̶, dftd3,
                d̶f̶t̶d̶4̶, dkh, ecpint, einsums, f̶o̶r̶t̶e̶, gauxc, g̶c̶p̶, g̶d̶m̶a̶,
                g̶e̶o̶m̶e̶t̶r̶i̶c̶, g̶p̶u̶_̶d̶f̶c̶c̶, i̶n̶t̶e̶g̶r̶a̶t̶o̶r̶x̶x̶, i̶p̶i̶,
                l̶i̶b̶e̶f̶p̶, m̶d̶i̶, m̶p̶2̶d̶, m̶r̶c̶c̶, ooo, o̶p̶e̶n̶f̶e̶r̶m̶i̶o̶n̶p̶s̶i̶4̶,
                pcmsolver, p̶s̶i̶4̶f̶o̶c̶k̶c̶i̶, p̶s̶i̶x̶a̶s̶, p̶y̶e̶i̶n̶s̶u̶m̶s̶, r̶e̶s̶p̶,
                s̶i̶m̶i̶n̶t̶, s̶n̶s̶m̶p̶2̶, v̶2̶r̶d̶m̶_̶c̶a̶s̶s̶c̶f̶

  ==> Input File <==

--------------------------------------------------------------------------
memory 3 GB
molecule mol {
0 1
C 0.83652412405590 0.13171285278919 1.26751188767923
C 1.55711494135132 -0.39234385667078 0.00000000000000
C 0.83652412405590 0.13171285278919 -1.26751188767923
C -0.65916712921491 -0.14452288459469 -1.26331995907842
C -1.33162498613804 0.37734930206123 0.00000000000000
C -0.65916712921491 -0.14452288459469 1.26331995907842
C 1.57542231958140 -1.92420130002583 0.00000000000000
O 2.95105420968526 -0.02254822140696 0.00000000000000
C 1.61962969228849 0.09825831361950 -2.55374209699913
C 1.28406774770266 1.42606930174963 -1.90904129837117
C -1.16178849124292 -1.43985655650237 -1.86137125024060
C -1.40832276261734 -0.13080220645860 -2.57398293245246
C -2.81457120349962 0.65499430778914 0.00000000000000
C -1.83138981071632 1.80444044770881 0.00000000000000
C -1.16178849124292 -1.43985655650237 1.86137125024060
C -1.40832276261734 -0.13080220645860 2.57398293245246
C 1.28406774770266 1.42606930174963 1.90904129837117
C 1.61962969228849 0.09825831361950 2.55374209699913
H 0.55696819391777 -2.31665296367255 0.00000000000000
H 2.09653521277846 -2.28292790952907 -0.89391109437516
H 2.09653521277846 -2.28292790952907 0.89391109437516
H 2.99753911717904 0.94304866690726 0.00000000000000
H 0.50359122992613 2.02578126476296 2.36865609964169
H 2.10231784939006 2.00869518426868 1.48862886916750
H 2.64956015447152 -0.24289369978679 2.46600483204921
H 1.12850548872640 -0.18310120438486 3.48396215362923
H -0.43107874699898 -2.11111510035227 2.29246990704226
H -2.01481074543352 -1.91294514653434 1.37977896885546
H -2.42004843677646 0.27605963425087 2.59683984589100
H -0.85080654935233 0.07964401471210 3.48350622948239
H -3.38334466596795 0.46516108668456 0.90433051042365
H -3.38334466596795 0.46516108668456 -0.90433051042365
H -1.72162036241563 2.37473986396039 -0.92522222799729
H -1.72162036241563 2.37473986396039 0.92522222799729
H -2.01481074543352 -1.91294514653434 -1.37977896885546
H -0.43107874699898 -2.11111510035227 -2.29246990704226
H -0.85080654935233 0.07964401471210 -3.48350622948239
H -2.42004843677646 0.27605963425087 -2.59683984589100
H 1.12850548872640 -0.18310120438486 -3.48396215362923
H 2.64956015447152 -0.24289369978679 -2.46600483204921
H 2.10231784939006 2.00869518426868 -1.48862886916750
H 0.50359122992613 2.02578126476296 -2.36865609964169
units angstrom
no_reorient
no_com
}
set basis def2-TZVP
set scf_type disk_df
set freeze_core true
set e_convergence 8
energy('b3lyp-d3bj')
--------------------------------------------------------------------------

  Memory set to   2.794 GiB by Python driver.

Scratch directory: /Users/hoyoun/Documents/Yonsei_AX_Camp/(진짜_이게_최종)/calibration/dft_work/_scratch/i15p/
   => Libint2 <=

    Primary   basis highest AM E, G, H:  7, 6, 3
    Auxiliary basis highest AM E, G, H:  7, 7, 4
    Onebody   basis highest AM E, G, H:  -, -, -
    Solid Harmonics ordering:            Gaussian

*** tstart() called on choehoyun-ui-MacBookAir.local
*** at Sun Aug  9 03:35:12 2026

   => Loading Basis Set <=

    Name: DEF2-TZVP
    Role: ORBITAL
    Keyword: BASIS
    atoms 1-7, 9-18 entry C          line   123 file /Users/hoyoun/micromamba/envs/psi4env/share/psi4/basis/def2-tzvp.gbs 
    atoms 8         entry O          line   189 file /Users/hoyoun/micromamba/envs/psi4env/share/psi4/basis/def2-tzvp.gbs 
    atoms 19-42     entry H          line    15 file /Users/hoyoun/micromamba/envs/psi4env/share/psi4/basis/def2-tzvp.gbs 

   => B3LYP-D3(BJ): Empirical Dispersion <=

    Grimme's -D3 (BJ-damping) Dispersion Correction
    Grimme S.; Ehrlich S.; Goerigk L. (2011), J. Comput. Chem., 32: 1456

        s6 =       1.000000
        s8 =       1.988900
        a1 =       0.398100
        a2 =       4.421100


         ---------------------------------------------------------
                                   SCF
               by Justin Turney, Rob Parrish, Andy Simmonett
                          and Daniel G. A. Smith
                              RKS Reference
                        8 Threads,   2861 MiB Core
         ---------------------------------------------------------

  ==> Geometry <==

    Molecular point group: cs
    Full point group: Cs

    Geometry (in Angstrom), charge = 0, multiplicity = 1:

       Center              X                  Y                   Z               Mass       
    ------------   -----------------  -----------------  -----------------  -----------------
         C            0.836524124056     0.131712852789     1.267511887679    12.000000000000
         C            1.557114941351    -0.392343856671     0.000000000000    12.000000000000
         C            0.836524124056     0.131712852789    -1.267511887679    12.000000000000
         C           -0.659167129215    -0.144522884595    -1.263319959078    12.000000000000
         C           -1.331624986138     0.377349302061     0.000000000000    12.000000000000
         C           -0.659167129215    -0.144522884595     1.263319959078    12.000000000000
         C            1.575422319581    -1.924201300026     0.000000000000    12.000000000000
         O            2.951054209685    -0.022548221407     0.000000000000    15.994914619570
         C            1.619629692288     0.098258313620    -2.553742096999    12.000000000000
         C            1.284067747703     1.426069301750    -1.909041298371    12.000000000000
         C           -1.161788491243    -1.439856556502    -1.861371250241    12.000000000000
         C           -1.408322762617    -0.130802206459    -2.573982932452    12.000000000000
         C           -2.814571203500     0.654994307789     0.000000000000    12.000000000000
         C           -1.831389810716     1.804440447709     0.000000000000    12.000000000000
         C           -1.161788491243    -1.439856556502     1.861371250241    12.000000000000
         C           -1.408322762617    -0.130802206459     2.573982932452    12.000000000000
         C            1.284067747703     1.426069301750     1.909041298371    12.000000000000
         C            1.619629692288     0.098258313620     2.553742096999    12.000000000000
         H            0.556968193918    -2.316652963673     0.000000000000     1.007825032230
         H            2.096535212778    -2.282927909529    -0.893911094375     1.007825032230
         H            2.096535212778    -2.282927909529     0.893911094375     1.007825032230
         H            2.997539117179     0.943048666907     0.000000000000     1.007825032230
         H            0.503591229926     2.025781264763     2.368656099642     1.007825032230
         H            2.102317849390     2.008695184269     1.488628869168     1.007825032230
         H            2.649560154472    -0.242893699787     2.466004832049     1.007825032230
         H            1.128505488726    -0.183101204385     3.483962153629     1.007825032230
         H           -0.431078746999    -2.111115100352     2.292469907042     1.007825032230
         H           -2.014810745434    -1.912945146534     1.379778968855     1.007825032230
         H           -2.420048436776     0.276059634251     2.596839845891     1.007825032230
         H           -0.850806549352     0.079644014712     3.483506229482     1.007825032230
         H           -3.383344665968     0.465161086685     0.904330510424     1.007825032230
         H           -3.383344665968     0.465161086685    -0.904330510424     1.007825032230
         H           -1.721620362416     2.374739863960    -0.925222227997     1.007825032230
         H           -1.721620362416     2.374739863960     0.925222227997     1.007825032230
         H           -2.014810745434    -1.912945146534    -1.379778968855     1.007825032230
         H           -0.431078746999    -2.111115100352    -2.292469907042     1.007825032230
         H           -0.850806549352     0.079644014712    -3.483506229482     1.007825032230
         H           -2.420048436776     0.276059634251    -2.596839845891     1.007825032230
         H            1.128505488726    -0.183101204385    -3.483962153629     1.007825032230
         H            2.649560154472    -0.242893699787    -2.466004832049     1.007825032230
         H            2.102317849390     2.008695184269    -1.488628869168     1.007825032230
         H            0.503591229926     2.025781264763    -2.368656099642     1.007825032230

  Running in cs symmetry.

  Rotational constants: A =      0.01845  B =      0.01820  C =      0.01264 [cm^-1]
  Rotational constants: A =    553.04486  B =    545.61199  C =    378.98660 [MHz]
  Nuclear repulsion = 1502.519419898165097

  Charge       = 0
  Multiplicity = 1
  Electrons    = 134
  Nalpha       = 67
  Nbeta        = 67

  ==> Algorithm <==

  SCF Algorithm Type is DISK_DF.
  DIIS enabled.
  MOM disabled.
  Fractional occupation disabled.
  Guess Type is SAD.
  Energy threshold   = 1.00e-08
  Density threshold  = 1.00e-06
  Integral threshold = 1.00e-12

  ==> Primary Basis <==

  Basis Set: DEF2-TZVP
    Blend: DEF2-TZVP
    Number of shells: 294
    Number of basis functions: 702
    Number of Cartesian functions: 792
    Spherical Harmonics?: true
    Max angular momentum: 3

  ==> DFT Potential <==

   => LibXC <=

    Version 7.1.2
    S. Lehtola, C. Steigemann, M. J. T. Oliveira, and M. A. L. Marques,  SoftwareX 7, 1–5 (2018) (10.1016/j.softx.2017.11.002)

   => Composite Functional: B3LYP-D3BJ2B <= 

    B3LYP-d3bj2b Hyb-GGA Exchange-Correlation Functional

    P. J. Stephens, F. J. Devlin, C. F. Chabalowski, and M. J. Frisch,  J. Phys. Chem. 98, 11623 (1994) (10.1021/j100096a001)

    Deriv               =              1
    GGA                 =           TRUE
    Meta                =          FALSE

    Exchange Hybrid     =           TRUE
    MP2 Hybrid          =          FALSE

   => Exchange Functionals <=

    0.0800   Slater exchange
    0.7200         Becke 88

   => Exact (HF) Exchange <=

    0.2000               HF 

   => Correlation Functionals <=

    0.1900   Vosko, Wilk & Nusair (VWN5_RPA)
    0.8100   Lee, Yang & Parr

   => LibXC Density Thresholds  <==

    XC_HYB_GGA_XC_B3LYP:  1.00E-15 

   => Molecular Quadrature <=

    Radial Scheme          =       TREUTLER
    Pruning Scheme         =           NONE
    Nuclear Scheme         =       TREUTLER

    Blocking Scheme        =         OCTREE
    BS radius alpha        =              1
    Pruning alpha          =              1
    Radial Points          =             75
    Spherical Points       =            302
    Total Points           =         848106
    Total Blocks           =           5898
    Max Points             =            256
    Max Functions          =            624
    Weights Tolerance      =       1.00E-15

   => Loading Basis Set <=

    Name: (DEF2-TZVP AUX)
    Role: JKFIT
    Keyword: DF_BASIS_SCF
    atoms 1-7, 9-18 entry C          line   198 file /Users/hoyoun/micromamba/envs/psi4env/share/psi4/basis/def2-universal-jkfit.gbs 
    atoms 8         entry O          line   318 file /Users/hoyoun/micromamba/envs/psi4env/share/psi4/basis/def2-universal-jkfit.gbs 
    atoms 19-42     entry H          line    18 file /Users/hoyoun/micromamba/envs/psi4env/share/psi4/basis/def2-universal-jkfit.gbs 

  ==> Integral Setup <==

  ==> DiskDFJK: Density-Fitted J/K Matrices <==

    J tasked:                  Yes
    K tasked:                  Yes
    wK tasked:                  No
    OpenMP threads:              8
    Integrals threads:           8
    Memory [MiB]:             1931
    Algorithm:                Disk
    Integral Cache:           NONE
    Schwarz Cutoff:          1E-12
    Fitting Condition:       1E-10

   => Auxiliary Basis Set <=

  Basis Set: (DEF2-TZVP AUX)
    Blend: DEF2-UNIVERSAL-JKFIT
    Number of shells: 594
    Number of basis functions: 1784
    Number of Cartesian functions: 2086
    Spherical Harmonics?: true
    Max angular momentum: 4

  Cached 2.1% of DFT collocation blocks in 0.227 [GiB].

  Minimum eigenvalue in the overlap matrix is 1.3898765752E-05.
  Reciprocal condition number of the overlap matrix is 1.1505756485E-06.
    Using symmetric orthogonalization.

  ==> Pre-Iterations <==

  SCF Guess: Superposition of Atomic Densities via on-the-fly atomic UHF (no occupation information).

   -------------------------
    Irrep   Nso     Nmo    
   -------------------------
     A'       388     388 
     A"       314     314 
   -------------------------
    Total     702     702
   -------------------------

  ==> Iterations <==

                           Total Energy        Delta E     RMS |[F,P]|

   @DF-RKS iter SAD:  -737.93631010179377   -7.37936e+02   0.00000e+00 
   @DF-RKS iter   1:  -735.93181330458719    2.00450e+00   3.71390e-03 ADIIS/DIIS
   @DF-RKS iter   2:  -733.32610231332910    2.60571e+00   5.78087e-03 ADIIS/DIIS
   @DF-RKS iter   3:  -737.52632029909830   -4.20022e+00   1.17693e-03 ADIIS/DIIS
   @DF-RKS iter   4:  -737.64132138050115   -1.15001e-01   6.31958e-04 ADIIS/DIIS
   @DF-RKS iter   5:  -737.68481641713595   -4.34950e-02   1.10176e-04 ADIIS/DIIS
   @DF-RKS iter   6:  -737.68582489551261   -1.00848e-03   4.24281e-05 DIIS
   @DF-RKS iter   7:  -737.68599096183436   -1.66066e-04   9.01551e-06 DIIS
   @DF-RKS iter   8:  -737.68599793817350   -6.97634e-06   3.08665e-06 DIIS
   @DF-RKS iter   9:  -737.68599898732452   -1.04915e-06   5.07988e-07 DIIS
   @DF-RKS iter  10:  -737.68599901391099   -2.65865e-08   1.77205e-07 DIIS
   @DF-RKS iter  11:  -737.68599901719392   -3.28293e-09   5.11114e-08 DIIS
  Energy and wave function converged.


  ==> Post-Iterations <==

   Electrons on quadrature grid:
      Ntotal   =  133.9990825639 ; deviation = -9.174e-04 

    Orbital Energies [Eh]
    ---------------------

    Doubly Occupied:                                                      

       1Ap   -19.126987     2Ap   -10.234251     3Ap   -10.192034  
       1App  -10.192006     4Ap   -10.191419     2App  -10.187305  
       5Ap   -10.187293     3App  -10.174699     6Ap   -10.174699  
       7Ap   -10.174324     4App  -10.173948     8Ap   -10.173945  
       9Ap   -10.172097     5App  -10.171384    10Ap   -10.171380  
      11Ap   -10.169183     6App  -10.169183    12Ap   -10.152035  
      13Ap    -1.025836    14Ap    -0.905557     7App   -0.877408  
      15Ap    -0.856654     8App   -0.833841    16Ap    -0.823533  
      17Ap    -0.758301    18Ap    -0.689475     9App   -0.627592  
      19Ap    -0.625672    20Ap    -0.610945    10App   -0.610351  
      21Ap    -0.603336    22Ap    -0.601413    11App   -0.599822  
      23Ap    -0.565688    12App   -0.547979    13App   -0.528108  
      24Ap    -0.526659    25Ap    -0.505178    26Ap    -0.499430  
      14App   -0.492285    27Ap    -0.488661    15App   -0.477258  
      28Ap    -0.440942    16App   -0.435535    29Ap    -0.415529  
      17App   -0.415281    30Ap    -0.405320    18App   -0.382874  
      31Ap    -0.382625    19App   -0.374864    32Ap    -0.372691  
      20App   -0.368840    33Ap    -0.365876    21App   -0.356182  
      34Ap    -0.352656    35Ap    -0.348060    22App   -0.345536  
      36Ap    -0.327610    23App   -0.324661    37Ap    -0.308307  
      24App   -0.300908    25App   -0.295988    38Ap    -0.288741  
      39Ap    -0.274073    26App   -0.269164    27App   -0.257822  
      40Ap    -0.253929  

    Virtual:                                                              

      41Ap     0.021861    42Ap     0.034751    43Ap     0.037951  
      28App    0.043984    44Ap     0.050069    29App    0.061942  
      45Ap     0.070775    30App    0.075598    46Ap     0.075953  
      47Ap     0.084870    31App    0.092314    48Ap     0.093727  
      32App    0.097688    49Ap     0.104133    50Ap     0.115374  
      33App    0.115604    34App    0.120193    51Ap     0.125389  
      52Ap     0.128123    53Ap     0.130108    35App    0.134848  
      36App    0.138509    54Ap     0.139675    55Ap     0.144717  
      56Ap     0.146875    37App    0.150394    57Ap     0.156023  
      38App    0.160103    58Ap     0.160982    39App    0.165775  
      59Ap     0.168541    40App    0.173110    60Ap     0.181239  
      41App    0.187316    42App    0.196407    61Ap     0.200134  
      43App    0.205089    62Ap     0.205373    63Ap     0.211043  
      44App    0.221389    64Ap     0.222844    65Ap     0.231599  
      66Ap     0.239562    45App    0.244525    46App    0.250812  
      67Ap     0.254830    47App    0.265057    68Ap     0.266391  
      69Ap     0.277637    48App    0.279236    49App    0.286055  
      70Ap     0.286833    71Ap     0.297111    72Ap     0.303871  
      50App    0.305316    73Ap     0.313766    51App    0.315937  
      74Ap     0.323658    75Ap     0.329446    52App    0.330278  
      53App    0.337870    76Ap     0.350662    77Ap     0.354334  
      54App    0.361129    78Ap     0.361135    55App    0.365011  
      79Ap     0.372771    80Ap     0.381531    81Ap     0.384100  
      56App    0.387192    57App    0.395535    82Ap     0.398444  
      83Ap     0.405341    84Ap     0.409001    58App    0.410761  
      59App    0.416665    60App    0.418281    85Ap     0.420573  
      61App    0.425276    86Ap     0.426813    62App    0.430998  
      87Ap     0.432240    88Ap     0.435308    89Ap     0.438890  
      63App    0.442735    90Ap     0.447431    64App    0.451860  
      91Ap     0.457842    65App    0.461102    92Ap     0.462301  
      66App    0.464157    93Ap     0.464731    67App    0.475419  
      94Ap     0.478265    95Ap     0.483234    96Ap     0.487098  
      68App    0.489864    97Ap     0.491328    98Ap     0.502253  
      69App    0.503608    70App    0.506912    71App    0.511818  
      72App    0.517999    99Ap     0.520128    73App    0.525625  
     100Ap     0.526443   101Ap     0.539834    74App    0.540622  
     102Ap     0.548598   103Ap     0.555632    75App    0.555717  
     104Ap     0.569274    76App    0.572645   105Ap     0.575396  
      77App    0.578706   106Ap     0.583501    78App    0.584934  
     107Ap     0.594961   108Ap     0.615189    79App    0.628799  
     109Ap     0.631624    80App    0.648346   110Ap     0.650078  
      81App    0.666931   111Ap     0.672302   112Ap     0.691724  
     113Ap     0.700071    82App    0.709626   114Ap     0.724926  
     115Ap     0.739742    83App    0.740859   116Ap     0.757015  
      84App    0.775305    85App    0.803759   117Ap     0.805087  
     118Ap     0.808461    86App    0.825572   119Ap     0.830194  
      87App    0.834319   120Ap     0.844670    88App    0.845309  
      89App    0.862299   121Ap     0.863406   122Ap     0.876841  
      90App    0.880079   123Ap     0.894257    91App    0.896039  
      92App    0.907356    93App    0.911646   124Ap     0.913611  
     125Ap     0.917289    94App    0.922164   126Ap     0.935397  
     127Ap     0.953385    95App    0.957471   128Ap     0.964705  
      96App    0.968653   129Ap     0.979151    97App    0.982177  
      98App    0.991548   130Ap     0.993127   131Ap     1.004133  
     132Ap     1.011934    99App    1.026625   133Ap     1.032658  
     100App    1.038877   134Ap     1.044445   135Ap     1.052615  
     101App    1.061326   136Ap     1.061861   137Ap     1.071445  
     102App    1.076429   138Ap     1.086009   103App    1.086285  
     104App    1.096627   139Ap     1.098576   140Ap     1.108141  
     141Ap     1.114955   105App    1.117516   106App    1.120078  
     142Ap     1.125634   107App    1.126660   143Ap     1.127435  
     144Ap     1.138055   145Ap     1.152967   108App    1.158984  
     146Ap     1.161501   109App    1.173855   147Ap     1.180059  
     110App    1.186789   148Ap     1.194010   149Ap     1.211434  
     111App    1.212992   112App    1.214562   113App    1.232227  
     150Ap     1.232810   114App    1.240091   151Ap     1.243523  
     115App    1.252290   152Ap     1.258575   116App    1.266613  
     153Ap     1.269162   154Ap     1.274795   117App    1.275676  
     155Ap     1.295057   118App    1.296751   156Ap     1.307439  
     119App    1.319219   157Ap     1.332798   120App    1.333307  
     121App    1.350800   158Ap     1.351015   159Ap     1.384827  
     160Ap     1.395983   122App    1.414707   161Ap     1.425512  
     162Ap     1.441541   123App    1.446044   124App    1.455683  
     163Ap     1.473492   164Ap     1.485523   125App    1.495023  
     165Ap     1.505972   126App    1.508287   166Ap     1.540250  
     127App    1.543362   167Ap     1.552219   128App    1.561129  
     129App    1.566036   168Ap     1.573178   169Ap     1.578882  
     170Ap     1.598229   130App    1.602918   131App    1.604716  
     171Ap     1.616927   172Ap     1.626740   173Ap     1.634651  
     132App    1.635461   133App    1.641041   174Ap     1.644229  
     134App    1.648758   135App    1.660701   175Ap     1.663813  
     176Ap     1.682398   177Ap     1.692290   136App    1.694216  
     178Ap     1.714630   137App    1.719530   138App    1.722233  
     179Ap     1.723016   139App    1.741176   140App    1.746449  
     180Ap     1.756519   141App    1.770221   181Ap     1.770689  
     182Ap     1.788215   183Ap     1.796097   142App    1.796246  
     184Ap     1.803455   143App    1.804743   185Ap     1.809622  
     186Ap     1.815055   144App    1.817979   145App    1.819016  
     146App    1.830898   147App    1.840888   187Ap     1.845732  
     188Ap     1.849035   189Ap     1.861417   190Ap     1.872926  
     148App    1.891511   191Ap     1.906075   192Ap     1.907343  
     149App    1.918072   193Ap     1.931844   150App    1.937522  
     151App    1.963293   194Ap     1.969256   195Ap     1.975452  
     196Ap     1.984258   152App    1.986220   153App    2.003364  
     197Ap     2.012897   198Ap     2.027815   154App    2.034677  
     199Ap     2.064987   200Ap     2.073916   155App    2.074030  
     201Ap     2.091257   156App    2.091570   157App    2.111881  
     202Ap     2.117593   158App    2.132161   203Ap     2.135538  
     159App    2.135873   204Ap     2.153315   160App    2.156506  
     161App    2.179134   205Ap     2.184350   162App    2.187347  
     206Ap     2.188107   207Ap     2.210380   208Ap     2.222669  
     163App    2.247042   209Ap     2.253185   164App    2.257050  
     165App    2.264745   210Ap     2.269332   211Ap     2.279841  
     166App    2.287455   212Ap     2.297585   167App    2.308031  
     213Ap     2.310158   168App    2.318279   214Ap     2.321854  
     169App    2.332542   215Ap     2.336368   170App    2.345619  
     216Ap     2.361439   217Ap     2.369307   171App    2.382834  
     218Ap     2.388292   172App    2.396065   219Ap     2.400857  
     173App    2.401700   220Ap     2.416395   221Ap     2.425846  
     222Ap     2.442954   174App    2.447457   223Ap     2.459277  
     175App    2.467352   224Ap     2.471831   176App    2.480124  
     177App    2.490265   225Ap     2.496468   178App    2.518081  
     226Ap     2.522843   227Ap     2.525591   179App    2.527291  
     228Ap     2.533652   229Ap     2.542566   180App    2.551450  
     230Ap     2.552056   181App    2.555286   182App    2.558713  
     231Ap     2.566122   183App    2.568827   232Ap     2.570469  
     233Ap     2.582263   184App    2.585190   185App    2.596540  
     234Ap     2.597274   235Ap     2.605608   186App    2.607279  
     187App    2.613007   236Ap     2.626236   188App    2.634674  
     237Ap     2.635601   189App    2.654413   238Ap     2.657023  
     190App    2.659862   239Ap     2.667711   191App    2.675113  
     240Ap     2.684706   241Ap     2.694049   192App    2.696187  
     242Ap     2.698062   243Ap     2.704822   193App    2.713817  
     244Ap     2.725309   245Ap     2.732861   194App    2.738110  
     246Ap     2.744121   195App    2.747953   247Ap     2.752154  
     196App    2.757375   248Ap     2.763399   197App    2.774016  
     249Ap     2.778652   250Ap     2.789148   198App    2.793058  
     199App    2.812497   251Ap     2.816012   252Ap     2.827284  
     200App    2.829001   201App    2.842874   253Ap     2.845594  
     254Ap     2.854574   202App    2.862319   203App    2.867117  
     204App    2.869694   255Ap     2.872056   256Ap     2.880755  
     205App    2.884426   257Ap     2.888044   258Ap     2.904142  
     206App    2.904968   207App    2.927606   259Ap     2.935883  
     260Ap     2.966277   208App    2.982617   261Ap     2.992913  
     262Ap     3.001461   263Ap     3.011766   209App    3.016731  
     264Ap     3.033248   210App    3.034736   265Ap     3.049661  
     211App    3.050164   212App    3.062047   213App    3.071905  
     266Ap     3.072350   214App    3.078799   267Ap     3.081572  
     215App    3.094000   268Ap     3.111545   216App    3.113780  
     269Ap     3.121252   217App    3.127533   270Ap     3.138825  
     271Ap     3.151919   218App    3.157720   219App    3.159292  
     272Ap     3.172605   220App    3.193513   273Ap     3.194470  
     221App    3.206681   274Ap     3.214143   222App    3.220177  
     275Ap     3.220923   276Ap     3.230487   223App    3.237761  
     277Ap     3.243560   224App    3.257750   278Ap     3.261534  
     279Ap     3.270981   280Ap     3.281920   225App    3.296416  
     281Ap     3.302418   226App    3.314469   282Ap     3.332954  
     227App    3.333806   283Ap     3.345141   228App    3.353484  
     284Ap     3.356700   229App    3.360808   285Ap     3.364900  
     230App    3.377251   286Ap     3.383573   231App    3.388383  
     287Ap     3.394300   288Ap     3.416819   289Ap     3.423784  
     232App    3.431384   290Ap     3.433782   233App    3.444163  
     234App    3.454019   291Ap     3.467325   235App    3.471519  
     236App    3.483523   292Ap     3.494865   237App    3.495883  
     293Ap     3.501911   294Ap     3.517442   238App    3.518630  
     239App    3.546684   295Ap     3.550024   240App    3.555052  
     241App    3.561865   296Ap     3.567761   297Ap     3.589030  
     242App    3.594481   298Ap     3.605769   243App    3.607729  
     299Ap     3.613093   244App    3.614376   300Ap     3.630332  
     245App    3.637940   301Ap     3.643476   302Ap     3.656084  
     246App    3.662242   303Ap     3.664320   304Ap     3.682963  
     247App    3.688618   305Ap     3.692312   248App    3.702598  
     306Ap     3.718987   249App    3.744693   250App    3.753810  
     307Ap     3.754274   308Ap     3.781037   251App    3.794047  
     252App    3.805594   309Ap     3.820189   310Ap     3.823969  
     253App    3.829905   311Ap     3.844909   312Ap     3.866742  
     254App    3.868916   313Ap     3.875204   255App    3.878455  
     314Ap     3.885268   256App    3.906938   315Ap     3.922867  
     316Ap     3.935819   257App    3.938195   317Ap     3.960603  
     258App    3.975607   318Ap     3.980956   259App    3.988803  
     319Ap     4.001024   260App    4.005200   320Ap     4.016259  
     261App    4.030903   321Ap     4.031341   262App    4.045937  
     322Ap     4.058532   323Ap     4.084456   263App    4.090422  
     264App    4.103176   324Ap     4.125494   265App    4.127476  
     325Ap     4.133084   266App    4.136733   267App    4.145029  
     326Ap     4.154126   268App    4.160883   269App    4.167119  
     327Ap     4.167839   328Ap     4.186892   270App    4.199859  
     271App    4.215302   329Ap     4.216572   272App    4.220092  
     330Ap     4.223310   331Ap     4.245613   273App    4.271125  
     332Ap     4.274944   333Ap     4.291643   334Ap     4.296308  
     274App    4.300938   335Ap     4.320963   275App    4.325591  
     276App    4.337288   336Ap     4.356736   337Ap     4.374026  
     277App    4.375063   278App    4.386854   338Ap     4.393660  
     339Ap     4.411090   279App    4.423378   280App    4.445268  
     340Ap     4.455689   341Ap     4.462141   281App    4.468094  
     342Ap     4.487795   282App    4.497188   343Ap     4.514187  
     344Ap     4.528072   283App    4.531430   345Ap     4.548788  
     346Ap     4.556424   284App    4.570695   347Ap     4.573684  
     285App    4.587522   286App    4.596164   348Ap     4.616207  
     287App    4.638917   349Ap     4.642758   288App    4.691283  
     350Ap     4.702406   289App    4.716626   351Ap     4.727158  
     290App    4.736094   352Ap     4.747064   291App    4.769847  
     353Ap     4.779295   292App    4.791399   354Ap     4.818856  
     293App    4.843743   355Ap     4.876907   294App    4.891916  
     356Ap     4.905701   295App    4.913505   357Ap     4.919066  
     358Ap     4.937355   296App    4.964869   359Ap     4.972087  
     297App    4.996142   360Ap     5.019487   361Ap     5.024867  
     362Ap     5.057654   298App    5.064316   299App    5.105765  
     363Ap     5.120746   364Ap     5.141927   365Ap     5.174312  
     300App    5.185719   301App    5.215856   366Ap     5.233942  
     367Ap     5.300361   302App    5.335889   368Ap     5.386822  
     303App    5.398761   369Ap     5.458141   370Ap     5.528460  
     304App    5.558908   305App    5.582932   371Ap     5.819766  
     306App    5.843985   372Ap     6.006434   373Ap     6.342326  
     307App    6.589749   374Ap     6.836348   308App    6.927370  
     375Ap     7.073797   376Ap     7.227438   377Ap    22.435455  
     378Ap    22.460911   379Ap    22.465308   309App   22.482497  
     310App   22.514139   380Ap    22.517842   381Ap    22.531051  
     311App   22.532934   382Ap    22.570336   383Ap    22.595547  
     312App   22.606948   384Ap    22.750907   385Ap    22.827683  
     313App   22.889489   386Ap    22.913194   387Ap    23.089039  
     314App   23.168934   388Ap    44.220296  

    Final Occupation by Irrep:
             Ap   App 
    DOCC [    40,   27 ]
    NA   [    40,   27 ]
    NB   [    40,   27 ]

  @DF-RKS Final Energy:  -737.68599901719392

   => Energetics <=

    Nuclear Repulsion Energy =           1502.5194198981650970
    One-Electron Energy =               -3983.1254471715246837
    Two-Electron Energy =                1832.1086468264238647
    DFT Exchange-Correlation Energy =     -89.0932888778609708
    Empirical Dispersion Energy =          -0.0953296923974601
    VV10 Nonlocal Energy =                  0.0000000000000000
    Total Energy =                       -737.6859990171939216

Computation Completed


Properties will be evaluated at   0.000000,   0.000000,   0.000000 [a0]

Properties computed using the SCF density matrix


 Multipole Moments:

 ------------------------------------------------------------------------------------
     Multipole            Electronic (a.u.)      Nuclear  (a.u.)        Total (a.u.)
 ------------------------------------------------------------------------------------

 L = 1.  Multiply by 2.5417464519 to convert [e a0] to [Debye]
 Dipole X            :        -22.2912023           21.8104018           -0.4808005
 Dipole Y            :         -3.2156892            3.4996692            0.2839799
 Dipole Z            :          0.0000000            0.0000000            0.0000000
 Magnitude           :                                                    0.5584028

 ------------------------------------------------------------------------------------

*** tstop() called on choehoyun-ui-MacBookAir.local at Sun Aug  9 03:37:12 2026
Module time:
	user time   =     845.20 seconds =      14.09 minutes
	system time =      10.80 seconds =       0.18 minutes
	total time  =        120 seconds =       2.00 minutes
Total time:
	user time   =     845.20 seconds =      14.09 minutes
	system time =      10.80 seconds =       0.18 minutes
	total time  =        120 seconds =       2.00 minutes

    Psi4 stopped on: Sunday, 09 August 2026 03:37AM
    Psi4 wall time for execution: 0:01:59.70

*** Psi4 exiting successfully. Buy a developer a beer!
