
    -----------------------------------------------------------------------
          Psi4: An Open-Source Ab Initio Electronic Structure Package
                               Psi4 1.11 release

                         Git: Rev {} zzzzzzz 


    D. G. A. Smith, L. A. Burns, A. C. Simmonett, R. M. Parrish,
    M. C. Schieber, R. Galvelis, P. Kraus, H. Kruse, R. Di Remigio,
    A. Alenaizan, A. M. James, S. Lehtola, J. P. Misiewicz, M. Scheurer,
    R. A. Shaw, J. B. Schriber, Y. Xie, Z. L. Glick, D. A. Sirianni,
    J. S. O'Brien, J. M. Waldrop, A. Kumar, E. G. Hohenstein,
    B. P. Pritchard, B. R. Brooks, H. F. Schaefer III, A. Yu. Sokolov,
    K. Patkowski, A. E. DePrince III, U. Bozkaya, R. A. King,
    F. A. Evangelista, J. M. Turney, T. D. Crawford, C. D. Sherrill,
    J. Chem. Phys. 152(18) 184108 (2020). https://doi.org/10.1063/5.0006002

                            Additional Code Authors
    E. T. Seidl, C. L. Janssen, E. F. Valeev, M. L. Leininger,
    J. F. Gonthier, R. M. Richard, H. R. McAlexander, M. Saitow, X. Wang,
    P. Verma, M. H. Lechner, A. Jiang, S. Behnle, A. G. Heide,
    M. F. Herbst, D. L. Poole, T. Győri, E. C. Mitchell, J. P. Pederson,
    and A. M. Wallace

             Previous Authors, Complete List of Code Contributors,
                       and Citations for Specific Modules
    https://github.com/psi4/psi4/blob/master/codemeta.json
    https://github.com/psi4/psi4/graphs/contributors
    https://psicode.org/psi4manual/master/introduction.html#citing-psifour

    -----------------------------------------------------------------------


    Psi4 started on: Sunday, 09 August 2026 04:23PM

    Process ID: 62038
    Host:       choehoyun-ui-MacBookAir.local
    PSIDATADIR: /Users/hoyoun/micromamba/envs/psi4env/share/psi4
    Memory:     500.0 MiB
    Threads:    8
    Addons:     a̶d̶c̶c̶, a̶m̶b̶i̶t̶, b̶s̶e̶, c̶c̶t̶3̶, c̶f̶o̶u̶r̶, c̶h̶e̶m̶p̶s̶2̶, c̶p̶p̶e̶, d̶d̶x̶, dftd3,
                d̶f̶t̶d̶4̶, dkh, ecpint, einsums, f̶o̶r̶t̶e̶, gauxc, g̶c̶p̶, g̶d̶m̶a̶,
                g̶e̶o̶m̶e̶t̶r̶i̶c̶, g̶p̶u̶_̶d̶f̶c̶c̶, i̶n̶t̶e̶g̶r̶a̶t̶o̶r̶x̶x̶, i̶p̶i̶,
                l̶i̶b̶e̶f̶p̶, m̶d̶i̶, m̶p̶2̶d̶, m̶r̶c̶c̶, ooo, o̶p̶e̶n̶f̶e̶r̶m̶i̶o̶n̶p̶s̶i̶4̶,
                pcmsolver, p̶s̶i̶4̶f̶o̶c̶k̶c̶i̶, p̶s̶i̶x̶a̶s̶, p̶y̶e̶i̶n̶s̶u̶m̶s̶, r̶e̶s̶p̶,
                s̶i̶m̶i̶n̶t̶, s̶n̶s̶m̶p̶2̶, v̶2̶r̶d̶m̶_̶c̶a̶s̶s̶c̶f̶

  ==> Input File <==

--------------------------------------------------------------------------
memory 3 GB
molecule mol {
0 1
C -0.66990195219652 1.27470290938790 0.00205199999591
C 0.87647993771197 1.24895191120568 -0.00216200006274
C 0.00459399956792 -0.97821693044080 -0.00119400000381
C -1.07117392389682 -0.18003298709136 -0.00011599987805
C 1.25080791137115 -0.22694998413389 -0.00042899973146
C -2.50248682250178 -0.58976995792121 0.00000400005054
C 2.48673382337023 -0.72916494832115 0.00147200007650
H -1.08065992335803 1.79348887272262 -0.86893393841915
H -1.07568692336742 1.78873887277128 0.87823493752744
H 1.29072390820120 1.75334287536798 0.87061393794852
H 1.28486690868376 1.74869887596211 -0.88042093736423
H -3.02276978530279 -0.18944598655634 -0.87504293794538
H -2.61412781441661 -1.67309888126516 -0.00151600010323
H 3.35959976119564 -0.09029999362171 0.00229199985308
H 2.65860781122931 -1.79714887239659 0.00228699965762
H -3.02187578538503 -0.19200898652596 0.87675493787904
H -0.02899999808756 -2.05939785363430 -0.00203800008362
units angstrom
no_reorient
no_com
}
set basis def2-TZVP
set scf_type df
set freeze_core true
set e_convergence 8
energy('b3lyp-d3bj')
--------------------------------------------------------------------------

  Memory set to   2.794 GiB by Python driver.

Scratch directory: /Users/hoyoun/Documents/Yonsei_AX_Camp/(진짜_이게_최종)/calibration/dft_work/_scratch/R60/
   => Libint2 <=

    Primary   basis highest AM E, G, H:  7, 6, 3
    Auxiliary basis highest AM E, G, H:  7, 7, 4
    Onebody   basis highest AM E, G, H:  -, -, -
    Solid Harmonics ordering:            Gaussian

*** tstart() called on choehoyun-ui-MacBookAir.local
*** at Sun Aug  9 16:23:20 2026

   => Loading Basis Set <=

    Name: DEF2-TZVP
    Role: ORBITAL
    Keyword: BASIS
    atoms 1-7  entry C          line   123 file /Users/hoyoun/micromamba/envs/psi4env/share/psi4/basis/def2-tzvp.gbs 
    atoms 8-17 entry H          line    15 file /Users/hoyoun/micromamba/envs/psi4env/share/psi4/basis/def2-tzvp.gbs 

   => B3LYP-D3(BJ): Empirical Dispersion <=

    Grimme's -D3 (BJ-damping) Dispersion Correction
    Grimme S.; Ehrlich S.; Goerigk L. (2011), J. Comput. Chem., 32: 1456

        s6 =       1.000000
        s8 =       1.988900
        a1 =       0.398100
        a2 =       4.421100


         ---------------------------------------------------------
                                   SCF
               by Justin Turney, Rob Parrish, Andy Simmonett
                          and Daniel G. A. Smith
                              RKS Reference
                        8 Threads,   2861 MiB Core
         ---------------------------------------------------------

  ==> Geometry <==

    Molecular point group: c1
    Full point group: C1

    Geometry (in Angstrom), charge = 0, multiplicity = 1:

       Center              X                  Y                   Z               Mass       
    ------------   -----------------  -----------------  -----------------  -----------------
         C           -0.669901952197     1.274702909388     0.002051999996    12.000000000000
         C            0.876479937712     1.248951911206    -0.002162000063    12.000000000000
         C            0.004593999568    -0.978216930441    -0.001194000004    12.000000000000
         C           -1.071173923897    -0.180032987091    -0.000115999878    12.000000000000
         C            1.250807911371    -0.226949984134    -0.000428999731    12.000000000000
         C           -2.502486822502    -0.589769957921     0.000004000051    12.000000000000
         C            2.486733823370    -0.729164948321     0.001472000076    12.000000000000
         H           -1.080659923358     1.793488872723    -0.868933938419     1.007825032230
         H           -1.075686923367     1.788738872771     0.878234937527     1.007825032230
         H            1.290723908201     1.753342875368     0.870613937949     1.007825032230
         H            1.284866908684     1.748698875962    -0.880420937364     1.007825032230
         H           -3.022769785303    -0.189445986556    -0.875042937945     1.007825032230
         H           -2.614127814417    -1.673098881265    -0.001516000103     1.007825032230
         H            3.359599761196    -0.090299993622     0.002291999853     1.007825032230
         H            2.658607811229    -1.797148872397     0.002286999658     1.007825032230
         H           -3.021875785385    -0.192008986526     0.876754937879     1.007825032230
         H           -0.028999998088    -2.059397853634    -0.002038000084     1.007825032230

  Running in c1 symmetry.

  Rotational constants: A =      0.18949  B =      0.06726  C =      0.05103 [cm^-1]
  Rotational constants: A =   5680.87526  B =   2016.47287  C =   1529.93654 [MHz]
  Nuclear repulsion =  284.088601684862397

  Charge       = 0
  Multiplicity = 1
  Electrons    = 52
  Nalpha       = 26
  Nbeta        = 26

  ==> Algorithm <==

  SCF Algorithm Type is DF.
  DIIS enabled.
  MOM disabled.
  Fractional occupation disabled.
  Guess Type is SAD.
  Energy threshold   = 1.00e-08
  Density threshold  = 1.00e-06
  Integral threshold = 1.00e-12

  ==> Primary Basis <==

  Basis Set: DEF2-TZVP
    Blend: DEF2-TZVP
    Number of shells: 117
    Number of basis functions: 277
    Number of Cartesian functions: 312
    Spherical Harmonics?: true
    Max angular momentum: 3

  ==> DFT Potential <==

   => LibXC <=

    Version 7.1.2
    S. Lehtola, C. Steigemann, M. J. T. Oliveira, and M. A. L. Marques,  SoftwareX 7, 1–5 (2018) (10.1016/j.softx.2017.11.002)

   => Composite Functional: B3LYP-D3BJ2B <= 

    B3LYP-d3bj2b Hyb-GGA Exchange-Correlation Functional

    P. J. Stephens, F. J. Devlin, C. F. Chabalowski, and M. J. Frisch,  J. Phys. Chem. 98, 11623 (1994) (10.1021/j100096a001)

    Deriv               =              1
    GGA                 =           TRUE
    Meta                =          FALSE

    Exchange Hybrid     =           TRUE
    MP2 Hybrid          =          FALSE

   => Exchange Functionals <=

    0.0800   Slater exchange
    0.7200         Becke 88

   => Exact (HF) Exchange <=

    0.2000               HF 

   => Correlation Functionals <=

    0.1900   Vosko, Wilk & Nusair (VWN5_RPA)
    0.8100   Lee, Yang & Parr

   => LibXC Density Thresholds  <==

    XC_HYB_GGA_XC_B3LYP:  1.00E-15 

   => Molecular Quadrature <=

    Radial Scheme          =       TREUTLER
    Pruning Scheme         =           NONE
    Nuclear Scheme         =       TREUTLER

    Blocking Scheme        =         OCTREE
    BS radius alpha        =              1
    Pruning alpha          =              1
    Radial Points          =             75
    Spherical Points       =            302
    Total Points           =         359310
    Total Blocks           =           2650
    Max Points             =            256
    Max Functions          =            265
    Weights Tolerance      =       1.00E-15

   => Loading Basis Set <=

    Name: (DEF2-TZVP AUX)
    Role: JKFIT
    Keyword: DF_BASIS_SCF
    atoms 1-7  entry C          line   198 file /Users/hoyoun/micromamba/envs/psi4env/share/psi4/basis/def2-universal-jkfit.gbs 
    atoms 8-17 entry H          line    18 file /Users/hoyoun/micromamba/envs/psi4env/share/psi4/basis/def2-universal-jkfit.gbs 

  ==> Integral Setup <==

  DFHelper Memory: AOs need 0.409 GiB; user supplied 0.409 GiB. 
  SCF_SUBTYPE=INCORE selected. In-core MEM_DF algorithm will be used.
  Using in-core AOs.

  ==> MemDFJK: Density-Fitted J/K Matrices <==

    J tasked:                   Yes
    K tasked:                   Yes
    wK tasked:                   No
    OpenMP threads:               8
    Memory [MiB]:               418
    Algorithm:                 Core
    Schwarz Cutoff:           1E-12
    Mask sparsity (%):       4.4181
    Fitting Condition:        1E-10

   => Auxiliary Basis Set <=

  Basis Set: (DEF2-TZVP AUX)
    Blend: DEF2-UNIVERSAL-JKFIT
    Number of shells: 235
    Number of basis functions: 705
    Number of Cartesian functions: 823
    Spherical Harmonics?: true
    Max angular momentum: 4

  Cached 50.0% of DFT collocation blocks in 1.049 [GiB].

  Minimum eigenvalue in the overlap matrix is 3.9284128835E-05.
  Reciprocal condition number of the overlap matrix is 3.8194913719E-06.
    Using symmetric orthogonalization.

  ==> Pre-Iterations <==

  SCF Guess: Superposition of Atomic Densities via on-the-fly atomic UHF (no occupation information).

   -------------------------
    Irrep   Nso     Nmo    
   -------------------------
     A        277     277 
   -------------------------
    Total     277     277
   -------------------------

  ==> Iterations <==

                           Total Energy        Delta E     RMS |[F,P]|

   @DF-RKS iter SAD:  -272.24326429598335   -2.72243e+02   0.00000e+00 
   @DF-RKS iter   1:  -272.10081922152352    1.42445e-01   4.34113e-03 ADIIS/DIIS
   @DF-RKS iter   2:  -271.49584006080778    6.04979e-01   5.63197e-03 ADIIS/DIIS
   @DF-RKS iter   3:  -272.82562752815295   -1.32979e+00   1.04622e-03 ADIIS/DIIS
   @DF-RKS iter   4:  -272.85335297986575   -2.77255e-02   6.32265e-04 ADIIS/DIIS
   @DF-RKS iter   5:  -272.86837373275318   -1.50208e-02   1.25960e-04 ADIIS/DIIS
   @DF-RKS iter   6:  -272.86894813516227   -5.74402e-04   4.85096e-05 DIIS
   @DF-RKS iter   7:  -272.86903367000946   -8.55348e-05   1.75042e-05 DIIS
   @DF-RKS iter   8:  -272.86904474330009   -1.10733e-05   2.76623e-06 DIIS
   @DF-RKS iter   9:  -272.86904502259722   -2.79297e-07   5.63687e-07 DIIS
   @DF-RKS iter  10:  -272.86904503332221   -1.07250e-08   2.66413e-07 DIIS
   @DF-RKS iter  11:  -272.86904503590597   -2.58376e-09   4.14506e-08 DIIS
  Energy and wave function converged.


  ==> Post-Iterations <==

   Electrons on quadrature grid:
      Ntotal   =   52.0000713631 ; deviation = 7.136e-05 

    Orbital Energies [Eh]
    ---------------------

    Doubly Occupied:                                                      

       1A    -10.181619     2A    -10.175071     3A    -10.173200  
       4A    -10.171854     5A    -10.169623     6A    -10.162187  
       7A    -10.147959     8A     -0.857475     9A     -0.767678  
      10A     -0.728846    11A     -0.689723    12A     -0.633699  
      13A     -0.542650    14A     -0.525541    15A     -0.470674  
      16A     -0.466877    17A     -0.433683    18A     -0.417789  
      19A     -0.415589    20A     -0.377101    21A     -0.365579  
      22A     -0.364105    23A     -0.342932    24A     -0.330890  
      25A     -0.303999    26A     -0.214322  

    Virtual:                                                              

      27A     -0.019540    28A      0.032520    29A      0.049015  
      30A      0.054354    31A      0.073088    32A      0.086005  
      33A      0.101803    34A      0.102292    35A      0.116945  
      36A      0.122474    37A      0.127371    38A      0.143548  
      39A      0.154152    40A      0.158845    41A      0.162937  
      42A      0.172199    43A      0.199447    44A      0.200480  
      45A      0.227778    46A      0.238151    47A      0.247287  
      48A      0.256977    49A      0.273676    50A      0.283573  
      51A      0.287939    52A      0.290748    53A      0.326622  
      54A      0.338705    55A      0.352979    56A      0.355466  
      57A      0.377846    58A      0.384485    59A      0.390506  
      60A      0.400017    61A      0.419607    62A      0.424447  
      63A      0.433237    64A      0.448380    65A      0.451476  
      66A      0.458713    67A      0.464406    68A      0.471599  
      69A      0.480752    70A      0.487548    71A      0.492444  
      72A      0.502711    73A      0.506393    74A      0.533985  
      75A      0.563263    76A      0.574252    77A      0.593444  
      78A      0.626980    79A      0.631370    80A      0.636123  
      81A      0.649500    82A      0.679430    83A      0.712420  
      84A      0.716275    85A      0.732658    86A      0.765074  
      87A      0.793774    88A      0.821924    89A      0.856275  
      90A      0.906684    91A      0.913759    92A      0.919136  
      93A      0.938684    94A      0.948534    95A      0.963159  
      96A      0.966754    97A      0.989916    98A      0.991246  
      99A      1.031667   100A      1.049131   101A      1.061758  
     102A      1.101970   103A      1.130853   104A      1.139257  
     105A      1.144677   106A      1.173065   107A      1.195416  
     108A      1.214389   109A      1.256494   110A      1.277025  
     111A      1.282919   112A      1.306520   113A      1.315629  
     114A      1.326785   115A      1.381824   116A      1.408754  
     117A      1.431858   118A      1.434976   119A      1.467280  
     120A      1.478193   121A      1.518028   122A      1.528613  
     123A      1.529491   124A      1.547614   125A      1.558328  
     126A      1.591666   127A      1.598581   128A      1.614065  
     129A      1.622933   130A      1.630512   131A      1.641290  
     132A      1.684004   133A      1.708526   134A      1.713550  
     135A      1.791501   136A      1.796967   137A      1.838019  
     138A      1.852369   139A      1.855769   140A      1.911905  
     141A      1.921636   142A      1.945608   143A      1.963530  
     144A      1.974089   145A      1.990552   146A      2.007569  
     147A      2.013174   148A      2.030189   149A      2.038188  
     150A      2.105532   151A      2.145653   152A      2.171743  
     153A      2.204657   154A      2.222165   155A      2.247656  
     156A      2.280724   157A      2.285293   158A      2.332953  
     159A      2.369818   160A      2.371180   161A      2.386344  
     162A      2.435030   163A      2.444854   164A      2.449119  
     165A      2.449289   166A      2.500119   167A      2.506477  
     168A      2.515570   169A      2.519917   170A      2.522604  
     171A      2.547805   172A      2.587737   173A      2.618493  
     174A      2.657505   175A      2.659577   176A      2.677699  
     177A      2.685985   178A      2.699764   179A      2.719976  
     180A      2.752831   181A      2.764945   182A      2.798401  
     183A      2.834083   184A      2.864341   185A      2.869483  
     186A      2.894584   187A      2.926668   188A      2.933872  
     189A      2.964929   190A      2.975057   191A      2.992549  
     192A      3.010453   193A      3.048778   194A      3.049595  
     195A      3.063782   196A      3.075780   197A      3.098920  
     198A      3.105816   199A      3.112605   200A      3.127010  
     201A      3.147307   202A      3.160625   203A      3.163636  
     204A      3.178145   205A      3.203945   206A      3.229989  
     207A      3.239054   208A      3.266089   209A      3.268668  
     210A      3.288681   211A      3.298602   212A      3.302923  
     213A      3.307618   214A      3.328689   215A      3.354467  
     216A      3.358530   217A      3.372375   218A      3.378267  
     219A      3.457235   220A      3.466969   221A      3.499478  
     222A      3.503634   223A      3.566975   224A      3.578779  
     225A      3.604743   226A      3.625875   227A      3.639571  
     228A      3.681246   229A      3.684547   230A      3.722374  
     231A      3.758538   232A      3.771875   233A      3.798526  
     234A      3.824654   235A      3.884357   236A      3.887185  
     237A      3.914767   238A      3.957570   239A      3.976033  
     240A      3.988398   241A      4.048773   242A      4.063756  
     243A      4.100667   244A      4.144247   245A      4.150725  
     246A      4.184269   247A      4.288525   248A      4.289540  
     249A      4.317699   250A      4.319890   251A      4.367415  
     252A      4.417395   253A      4.424326   254A      4.492697  
     255A      4.546606   256A      4.564699   257A      4.618107  
     258A      4.622646   259A      4.698400   260A      4.702349  
     261A      4.777108   262A      4.803681   263A      4.847930  
     264A      4.939356   265A      5.055741   266A      5.095491  
     267A      5.137815   268A      5.231353   269A      5.390830  
     270A      5.492721   271A     22.075185   272A     22.394433  
     273A     22.458960   274A     22.556420   275A     22.664332  
     276A     23.046980   277A     23.141642  

    Final Occupation by Irrep:
              A 
    DOCC [    26 ]
    NA   [    26 ]
    NB   [    26 ]

  @DF-RKS Final Energy:  -272.86904503590597

   => Energetics <=

    Nuclear Repulsion Energy =            284.0886016848623967
    One-Electron Energy =                -928.6783133638273284
    Two-Electron Energy =                 405.5716295254624697
    DFT Exchange-Correlation Energy =     -33.8254078541961292
    Empirical Dispersion Energy =          -0.0255550282073658
    VV10 Nonlocal Energy =                  0.0000000000000000
    Total Energy =                       -272.8690450359059696

Computation Completed


Properties will be evaluated at   0.000000,   0.000000,   0.000000 [a0]

Properties computed using the SCF density matrix


 Multipole Moments:

 ------------------------------------------------------------------------------------
     Multipole            Electronic (a.u.)      Nuclear  (a.u.)        Total (a.u.)
 ------------------------------------------------------------------------------------

 L = 1.  Multiply by 2.5417464519 to convert [e a0] to [Debye]
 Dipole X            :         -0.4697872           -0.0000076           -0.4697948
 Dipole Y            :          0.2046594           -0.0000208            0.2046386
 Dipole Z            :          0.0000126           -0.0000132           -0.0000006
 Magnitude           :                                                    0.5124296

 ------------------------------------------------------------------------------------

*** tstop() called on choehoyun-ui-MacBookAir.local at Sun Aug  9 16:23:29 2026
Module time:
	user time   =      59.93 seconds =       1.00 minutes
	system time =       1.37 seconds =       0.02 minutes
	total time  =          9 seconds =       0.15 minutes
Total time:
	user time   =      59.93 seconds =       1.00 minutes
	system time =       1.37 seconds =       0.02 minutes
	total time  =          9 seconds =       0.15 minutes

    Psi4 stopped on: Sunday, 09 August 2026 04:23PM
    Psi4 wall time for execution: 0:00:09.27

*** Psi4 exiting successfully. Buy a developer a beer!
