
    -----------------------------------------------------------------------
          Psi4: An Open-Source Ab Initio Electronic Structure Package
                               Psi4 1.11 release

                         Git: Rev {} zzzzzzz 


    D. G. A. Smith, L. A. Burns, A. C. Simmonett, R. M. Parrish,
    M. C. Schieber, R. Galvelis, P. Kraus, H. Kruse, R. Di Remigio,
    A. Alenaizan, A. M. James, S. Lehtola, J. P. Misiewicz, M. Scheurer,
    R. A. Shaw, J. B. Schriber, Y. Xie, Z. L. Glick, D. A. Sirianni,
    J. S. O'Brien, J. M. Waldrop, A. Kumar, E. G. Hohenstein,
    B. P. Pritchard, B. R. Brooks, H. F. Schaefer III, A. Yu. Sokolov,
    K. Patkowski, A. E. DePrince III, U. Bozkaya, R. A. King,
    F. A. Evangelista, J. M. Turney, T. D. Crawford, C. D. Sherrill,
    J. Chem. Phys. 152(18) 184108 (2020). https://doi.org/10.1063/5.0006002

                            Additional Code Authors
    E. T. Seidl, C. L. Janssen, E. F. Valeev, M. L. Leininger,
    J. F. Gonthier, R. M. Richard, H. R. McAlexander, M. Saitow, X. Wang,
    P. Verma, M. H. Lechner, A. Jiang, S. Behnle, A. G. Heide,
    M. F. Herbst, D. L. Poole, T. Győri, E. C. Mitchell, J. P. Pederson,
    and A. M. Wallace

             Previous Authors, Complete List of Code Contributors,
                       and Citations for Specific Modules
    https://github.com/psi4/psi4/blob/master/codemeta.json
    https://github.com/psi4/psi4/graphs/contributors
    https://psicode.org/psi4manual/master/introduction.html#citing-psifour

    -----------------------------------------------------------------------


    Psi4 started on: Sunday, 09 August 2026 01:11AM

    Process ID: 41301
    Host:       choehoyun-ui-MacBookAir.local
    PSIDATADIR: /Users/hoyoun/micromamba/envs/psi4env/share/psi4
    Memory:     500.0 MiB
    Threads:    1
    Addons:     a̶d̶c̶c̶, a̶m̶b̶i̶t̶, b̶s̶e̶, c̶c̶t̶3̶, c̶f̶o̶u̶r̶, c̶h̶e̶m̶p̶s̶2̶, c̶p̶p̶e̶, d̶d̶x̶, dftd3,
                d̶f̶t̶d̶4̶, dkh, ecpint, einsums, f̶o̶r̶t̶e̶, gauxc, g̶c̶p̶, g̶d̶m̶a̶,
                g̶e̶o̶m̶e̶t̶r̶i̶c̶, g̶p̶u̶_̶d̶f̶c̶c̶, i̶n̶t̶e̶g̶r̶a̶t̶o̶r̶x̶x̶, i̶p̶i̶,
                l̶i̶b̶e̶f̶p̶, m̶d̶i̶, m̶p̶2̶d̶, m̶r̶c̶c̶, ooo, o̶p̶e̶n̶f̶e̶r̶m̶i̶o̶n̶p̶s̶i̶4̶,
                pcmsolver, p̶s̶i̶4̶f̶o̶c̶k̶c̶i̶, p̶s̶i̶x̶a̶s̶, p̶y̶e̶i̶n̶s̶u̶m̶s̶, r̶e̶s̶p̶,
                s̶i̶m̶i̶n̶t̶, s̶n̶s̶m̶p̶2̶, v̶2̶r̶d̶m̶_̶c̶a̶s̶s̶c̶f̶

  ==> Input File <==

--------------------------------------------------------------------------
memory 6 GB
molecule mol {
0 1
O -0.19406076377051 0.79739273641193 -1.24754489601958
C 0.26247187165177 -0.38598230829161 -0.58046429069620
C -0.32117133065613 -0.35455087335457 0.81734976336935
O 0.13359163834237 0.76868703795148 1.55861147997763
H 0.31228523947947 0.92263345567703 -2.05616499287712
H -0.04828893261538 1.54811306582359 1.01818574137843
H -0.07634356115154 -1.28870353517575 -1.10504151358637
H 1.35679587878537 -0.39913550800419 -0.52010439487944
H -0.00816618457153 -1.24448358050056 1.36656177522182
H -1.41711385549389 -0.36397049053735 0.74861132811149
units angstrom
no_reorient
no_com
}
set basis def2-TZVP
set scf_type df
set freeze_core true
energy('b3lyp-d3bj')
--------------------------------------------------------------------------

  Memory set to   5.588 GiB by Python driver.

Scratch directory: /tmp/
   => Libint2 <=

    Primary   basis highest AM E, G, H:  7, 6, 3
    Auxiliary basis highest AM E, G, H:  7, 7, 4
    Onebody   basis highest AM E, G, H:  -, -, -
    Solid Harmonics ordering:            Gaussian

*** tstart() called on choehoyun-ui-MacBookAir.local
*** at Sun Aug  9 01:11:51 2026

   => Loading Basis Set <=

    Name: DEF2-TZVP
    Role: ORBITAL
    Keyword: BASIS
    atoms 1, 4 entry O          line   189 file /Users/hoyoun/micromamba/envs/psi4env/share/psi4/basis/def2-tzvp.gbs 
    atoms 2-3  entry C          line   123 file /Users/hoyoun/micromamba/envs/psi4env/share/psi4/basis/def2-tzvp.gbs 
    atoms 5-10 entry H          line    15 file /Users/hoyoun/micromamba/envs/psi4env/share/psi4/basis/def2-tzvp.gbs 

   => B3LYP-D3(BJ): Empirical Dispersion <=

    Grimme's -D3 (BJ-damping) Dispersion Correction
    Grimme S.; Ehrlich S.; Goerigk L. (2011), J. Comput. Chem., 32: 1456

        s6 =       1.000000
        s8 =       1.988900
        a1 =       0.398100
        a2 =       4.421100


         ---------------------------------------------------------
                                   SCF
               by Justin Turney, Rob Parrish, Andy Simmonett
                          and Daniel G. A. Smith
                              RKS Reference
                        1 Threads,   5722 MiB Core
         ---------------------------------------------------------

  ==> Geometry <==

    Molecular point group: c1
    Full point group: C1

    Geometry (in Angstrom), charge = 0, multiplicity = 1:

       Center              X                  Y                   Z               Mass       
    ------------   -----------------  -----------------  -----------------  -----------------
         O           -0.194060763771     0.797392736412    -1.247544896020    15.994914619570
         C            0.262471871652    -0.385982308292    -0.580464290696    12.000000000000
         C           -0.321171330656    -0.354550873355     0.817349763369    12.000000000000
         O            0.133591638342     0.768687037951     1.558611479978    15.994914619570
         H            0.312285239479     0.922633455677    -2.056164992877     1.007825032230
         H           -0.048288932615     1.548113065824     1.018185741378     1.007825032230
         H           -0.076343561152    -1.288703535176    -1.105041513586     1.007825032230
         H            1.356795878785    -0.399135508004    -0.520104394879     1.007825032230
         H           -0.008166184572    -1.244483580501     1.366561775222     1.007825032230
         H           -1.417113855494    -0.363970490537     0.748611328111     1.007825032230

  Running in c1 symmetry.

  Rotational constants: A =      0.46060  B =      0.18312  C =      0.14685 [cm^-1]
  Rotational constants: A =  13808.56676  B =   5489.91458  C =   4402.56119 [MHz]
  Nuclear repulsion =  133.003877947970579

  Charge       = 0
  Multiplicity = 1
  Electrons    = 34
  Nalpha       = 17
  Nbeta        = 17

  ==> Algorithm <==

  SCF Algorithm Type is DF.
  DIIS enabled.
  MOM disabled.
  Fractional occupation disabled.
  Guess Type is SAD.
  Energy threshold   = 1.00e-06
  Density threshold  = 1.00e-06
  Integral threshold = 1.00e-12

  ==> Primary Basis <==

  Basis Set: DEF2-TZVP
    Blend: DEF2-TZVP
    Number of shells: 68
    Number of basis functions: 160
    Number of Cartesian functions: 180
    Spherical Harmonics?: true
    Max angular momentum: 3

  ==> DFT Potential <==

   => LibXC <=

    Version 7.1.2
    S. Lehtola, C. Steigemann, M. J. T. Oliveira, and M. A. L. Marques,  SoftwareX 7, 1–5 (2018) (10.1016/j.softx.2017.11.002)

   => Composite Functional: B3LYP-D3BJ2B <= 

    B3LYP-d3bj2b Hyb-GGA Exchange-Correlation Functional

    P. J. Stephens, F. J. Devlin, C. F. Chabalowski, and M. J. Frisch,  J. Phys. Chem. 98, 11623 (1994) (10.1021/j100096a001)

    Deriv               =              1
    GGA                 =           TRUE
    Meta                =          FALSE

    Exchange Hybrid     =           TRUE
    MP2 Hybrid          =          FALSE

   => Exchange Functionals <=

    0.0800   Slater exchange
    0.7200         Becke 88

   => Exact (HF) Exchange <=

    0.2000               HF 

   => Correlation Functionals <=

    0.1900   Vosko, Wilk & Nusair (VWN5_RPA)
    0.8100   Lee, Yang & Parr

   => LibXC Density Thresholds  <==

    XC_HYB_GGA_XC_B3LYP:  1.00E-15 

   => Molecular Quadrature <=

    Radial Scheme          =       TREUTLER
    Pruning Scheme         =           NONE
    Nuclear Scheme         =       TREUTLER

    Blocking Scheme        =         OCTREE
    BS radius alpha        =              1
    Pruning alpha          =              1
    Radial Points          =             75
    Spherical Points       =            302
    Total Points           =         215109
    Total Blocks           =           1653
    Max Points             =            256
    Max Functions          =            158
    Weights Tolerance      =       1.00E-15

   => Loading Basis Set <=

    Name: (DEF2-TZVP AUX)
    Role: JKFIT
    Keyword: DF_BASIS_SCF
    atoms 1, 4 entry O          line   318 file /Users/hoyoun/micromamba/envs/psi4env/share/psi4/basis/def2-universal-jkfit.gbs 
    atoms 2-3  entry C          line   198 file /Users/hoyoun/micromamba/envs/psi4env/share/psi4/basis/def2-universal-jkfit.gbs 
    atoms 5-10 entry H          line    18 file /Users/hoyoun/micromamba/envs/psi4env/share/psi4/basis/def2-universal-jkfit.gbs 

  ==> Integral Setup <==

  DFHelper Memory: AOs need 0.084 GiB; user supplied 3.376 GiB. 
  SCF_SUBTYPE=INCORE selected. In-core MEM_DF algorithm will be used.
  Using in-core AOs.

  ==> MemDFJK: Density-Fitted J/K Matrices <==

    J tasked:                   Yes
    K tasked:                   Yes
    wK tasked:                   No
    OpenMP threads:               1
    Memory [MiB]:              3456
    Algorithm:                 Core
    Schwarz Cutoff:           1E-12
    Mask sparsity (%):       1.1875
    Fitting Condition:        1E-10

   => Auxiliary Basis Set <=

  Basis Set: (DEF2-TZVP AUX)
    Blend: DEF2-UNIVERSAL-JKFIT
    Number of shells: 136
    Number of basis functions: 412
    Number of Cartesian functions: 484
    Spherical Harmonics?: true
    Max angular momentum: 4

  Cached 100.0% of DFT collocation blocks in 0.815 [GiB].

  Minimum eigenvalue in the overlap matrix is 5.1740844805E-04.
  Reciprocal condition number of the overlap matrix is 6.2888182190E-05.
    Using symmetric orthogonalization.

  ==> Pre-Iterations <==

  SCF Guess: Superposition of Atomic Densities via on-the-fly atomic UHF (no occupation information).

   -------------------------
    Irrep   Nso     Nmo    
   -------------------------
     A        160     160 
   -------------------------
    Total     160     160
   -------------------------

  ==> Iterations <==

                           Total Energy        Delta E     RMS |[F,P]|

   @DF-RKS iter SAD:  -229.75753526446044   -2.29758e+02   0.00000e+00 
   @DF-RKS iter   1:  -229.99127394199539   -2.33739e-01   5.88931e-03 ADIIS/DIIS
   @DF-RKS iter   2:  -229.58398868628296    4.07285e-01   8.64963e-03 ADIIS/DIIS
   @DF-RKS iter   3:  -230.35839976150939   -7.74411e-01   8.65450e-04 ADIIS/DIIS
   @DF-RKS iter   4:  -230.36403558227968   -5.63582e-03   4.48724e-04 ADIIS/DIIS
   @DF-RKS iter   5:  -230.36606257385134   -2.02699e-03   6.41021e-05 DIIS
   @DF-RKS iter   6:  -230.36610498828321   -4.24144e-05   9.17713e-06 DIIS
   @DF-RKS iter   7:  -230.36610582157729   -8.33294e-07   2.28655e-06 DIIS
   @DF-RKS iter   8:  -230.36610586160114   -4.00238e-08   1.27792e-06 DIIS
   @DF-RKS iter   9:  -230.36610587524848   -1.36473e-08   2.02989e-07 DIIS
  Energy and wave function converged.


  ==> Post-Iterations <==

   Electrons on quadrature grid:
      Ntotal   =   33.9999697874 ; deviation = -3.021e-05 

    Orbital Energies [Eh]
    ---------------------

    Doubly Occupied:                                                      

       1A    -19.138860     2A    -19.120112     3A    -10.224715  
       4A    -10.217259     5A     -1.038674     6A     -1.012198  
       7A     -0.746074     8A     -0.622924     9A     -0.539168  
      10A     -0.500498    11A     -0.468437    12A     -0.428620  
      13A     -0.411553    14A     -0.363855    15A     -0.337627  
      16A     -0.295019    17A     -0.276596  

    Virtual:                                                              

      18A      0.015810    19A      0.057317    20A      0.064173  
      21A      0.093825    22A      0.103080    23A      0.117963  
      24A      0.142341    25A      0.150747    26A      0.175496  
      27A      0.209083    28A      0.283649    29A      0.302694  
      30A      0.321012    31A      0.328386    32A      0.353956  
      33A      0.365043    34A      0.383988    35A      0.401942  
      36A      0.417615    37A      0.443896    38A      0.457466  
      39A      0.465306    40A      0.501140    41A      0.506587  
      42A      0.515065    43A      0.546006    44A      0.586073  
      45A      0.632523    46A      0.671419    47A      0.703103  
      48A      0.744246    49A      0.798693    50A      0.835308  
      51A      0.856727    52A      0.875186    53A      0.909502  
      54A      1.020055    55A      1.048698    56A      1.102474  
      57A      1.124096    58A      1.158808    59A      1.319721  
      60A      1.355915    61A      1.436000    62A      1.447757  
      63A      1.454644    64A      1.503696    65A      1.533321  
      66A      1.558805    67A      1.565399    68A      1.595128  
      69A      1.603376    70A      1.657978    71A      1.722748  
      72A      1.742467    73A      1.810690    74A      1.824028  
      75A      1.866759    76A      1.882828    77A      1.915856  
      78A      1.979034    79A      2.050516    80A      2.080162  
      81A      2.099498    82A      2.166901    83A      2.199662  
      84A      2.238364    85A      2.244887    86A      2.273441  
      87A      2.303049    88A      2.341903    89A      2.379389  
      90A      2.421060    91A      2.458519    92A      2.491244  
      93A      2.536271    94A      2.563411    95A      2.615438  
      96A      2.652105    97A      2.675207    98A      2.741343  
      99A      2.771615   100A      2.808624   101A      2.832631  
     102A      2.878547   103A      2.915308   104A      2.953104  
     105A      3.041571   106A      3.050318   107A      3.094730  
     108A      3.124343   109A      3.148746   110A      3.200839  
     111A      3.232188   112A      3.291122   113A      3.299849  
     114A      3.351337   115A      3.395712   116A      3.488790  
     117A      3.519921   118A      3.579765   119A      3.759141  
     120A      3.776154   121A      3.832940   122A      3.882904  
     123A      3.938707   124A      3.953030   125A      4.003925  
     126A      4.183722   127A      4.304039   128A      4.330286  
     129A      4.483498   130A      4.579033   131A      4.611311  
     132A      4.694931   133A      5.236608   134A      5.260711  
     135A      5.314889   136A      5.360345   137A      5.441554  
     138A      5.460112   139A      5.678153   140A      5.697369  
     141A      5.752695   142A      5.772148   143A      5.849749  
     144A      5.923939   145A      6.234767   146A      6.261323  
     147A      6.418309   148A      6.446554   149A      6.639971  
     150A      6.675632   151A      6.709249   152A      6.775538  
     153A      6.943184   154A      6.963996   155A      7.119456  
     156A      7.134861   157A     22.298673   158A     22.412774  
     159A     43.684561   160A     43.718936  

    Final Occupation by Irrep:
              A 
    DOCC [    17 ]
    NA   [    17 ]
    NB   [    17 ]

  @DF-RKS Final Energy:  -230.36610587524848

   => Energetics <=

    Nuclear Repulsion Energy =            133.0038779479705795
    One-Electron Energy =                -577.6159006944237717
    Two-Electron Energy =                 238.7865052126314254
    DFT Exchange-Correlation Energy =     -24.5316392411140036
    Empirical Dispersion Energy =          -0.0089491003127226
    VV10 Nonlocal Energy =                  0.0000000000000000
    Total Energy =                       -230.3661058752484792

Computation Completed


Properties will be evaluated at   0.000000,   0.000000,   0.000000 [a0]

Properties computed using the SCF density matrix


 Multipole Moments:

 ------------------------------------------------------------------------------------
     Multipole            Electronic (a.u.)      Nuclear  (a.u.)        Total (a.u.)
 ------------------------------------------------------------------------------------

 L = 1.  Multiply by 2.5417464519 to convert [e a0] to [Debye]
 Dipole X            :          1.5762296           -1.3545201            0.2217095
 Dipole Y            :        -14.0516140           13.7192085           -0.3324054
 Dipole Z            :         -7.2310229            6.3530579           -0.8779650
 Magnitude           :                                                    0.9646093

 ------------------------------------------------------------------------------------

*** tstop() called on choehoyun-ui-MacBookAir.local at Sun Aug  9 01:12:39 2026
Module time:
	user time   =      13.27 seconds =       0.22 minutes
	system time =       5.61 seconds =       0.09 minutes
	total time  =         48 seconds =       0.80 minutes
Total time:
	user time   =      13.27 seconds =       0.22 minutes
	system time =       5.61 seconds =       0.09 minutes
	total time  =         48 seconds =       0.80 minutes

    Psi4 stopped on: Sunday, 09 August 2026 01:12AM
    Psi4 wall time for execution: 0:00:47.59

*** Psi4 exiting successfully. Buy a developer a beer!
