
    -----------------------------------------------------------------------
          Psi4: An Open-Source Ab Initio Electronic Structure Package
                               Psi4 1.11 release

                         Git: Rev {} zzzzzzz 


    D. G. A. Smith, L. A. Burns, A. C. Simmonett, R. M. Parrish,
    M. C. Schieber, R. Galvelis, P. Kraus, H. Kruse, R. Di Remigio,
    A. Alenaizan, A. M. James, S. Lehtola, J. P. Misiewicz, M. Scheurer,
    R. A. Shaw, J. B. Schriber, Y. Xie, Z. L. Glick, D. A. Sirianni,
    J. S. O'Brien, J. M. Waldrop, A. Kumar, E. G. Hohenstein,
    B. P. Pritchard, B. R. Brooks, H. F. Schaefer III, A. Yu. Sokolov,
    K. Patkowski, A. E. DePrince III, U. Bozkaya, R. A. King,
    F. A. Evangelista, J. M. Turney, T. D. Crawford, C. D. Sherrill,
    J. Chem. Phys. 152(18) 184108 (2020). https://doi.org/10.1063/5.0006002

                            Additional Code Authors
    E. T. Seidl, C. L. Janssen, E. F. Valeev, M. L. Leininger,
    J. F. Gonthier, R. M. Richard, H. R. McAlexander, M. Saitow, X. Wang,
    P. Verma, M. H. Lechner, A. Jiang, S. Behnle, A. G. Heide,
    M. F. Herbst, D. L. Poole, T. Győri, E. C. Mitchell, J. P. Pederson,
    and A. M. Wallace

             Previous Authors, Complete List of Code Contributors,
                       and Citations for Specific Modules
    https://github.com/psi4/psi4/blob/master/codemeta.json
    https://github.com/psi4/psi4/graphs/contributors
    https://psicode.org/psi4manual/master/introduction.html#citing-psifour

    -----------------------------------------------------------------------


    Psi4 started on: Sunday, 09 August 2026 01:32AM

    Process ID: 42819
    Host:       choehoyun-ui-MacBookAir.local
    PSIDATADIR: /Users/hoyoun/micromamba/envs/psi4env/share/psi4
    Memory:     500.0 MiB
    Threads:    1
    Addons:     a̶d̶c̶c̶, a̶m̶b̶i̶t̶, b̶s̶e̶, c̶c̶t̶3̶, c̶f̶o̶u̶r̶, c̶h̶e̶m̶p̶s̶2̶, c̶p̶p̶e̶, d̶d̶x̶, dftd3,
                d̶f̶t̶d̶4̶, dkh, ecpint, einsums, f̶o̶r̶t̶e̶, gauxc, g̶c̶p̶, g̶d̶m̶a̶,
                g̶e̶o̶m̶e̶t̶r̶i̶c̶, g̶p̶u̶_̶d̶f̶c̶c̶, i̶n̶t̶e̶g̶r̶a̶t̶o̶r̶x̶x̶, i̶p̶i̶,
                l̶i̶b̶e̶f̶p̶, m̶d̶i̶, m̶p̶2̶d̶, m̶r̶c̶c̶, ooo, o̶p̶e̶n̶f̶e̶r̶m̶i̶o̶n̶p̶s̶i̶4̶,
                pcmsolver, p̶s̶i̶4̶f̶o̶c̶k̶c̶i̶, p̶s̶i̶x̶a̶s̶, p̶y̶e̶i̶n̶s̶u̶m̶s̶, r̶e̶s̶p̶,
                s̶i̶m̶i̶n̶t̶, s̶n̶s̶m̶p̶2̶, v̶2̶r̶d̶m̶_̶c̶a̶s̶s̶c̶f̶

  ==> Input File <==

--------------------------------------------------------------------------
memory 6 GB
molecule mol {
0 1
C 0.00000000000000 0.66796712936810 -0.92748463772503
C 0.00000000000000 0.78639832087159 0.58531623529761
C 0.00000000000000 -0.78639832087159 0.58531623529761
C 0.00000000000000 -0.66796712936810 -0.92748463772503
H 0.00000000000000 1.41343333913708 -1.71367856510936
H 0.88815567850198 1.24476842048482 1.02792348376839
H -0.88815567850198 1.24476842048482 1.02792348376839
H -0.88815567850198 -1.24476842048482 1.02792348376839
H 0.88815567850198 -1.24476842048482 1.02792348376839
H 0.00000000000000 -1.41343333913708 -1.71367856510936
units angstrom
no_reorient
no_com
}
set basis def2-TZVP
set scf_type df
set freeze_core true
energy('b3lyp-d3bj')
--------------------------------------------------------------------------

  Memory set to   5.588 GiB by Python driver.

Scratch directory: /tmp/
   => Libint2 <=

    Primary   basis highest AM E, G, H:  7, 6, 3
    Auxiliary basis highest AM E, G, H:  7, 7, 4
    Onebody   basis highest AM E, G, H:  -, -, -
    Solid Harmonics ordering:            Gaussian

*** tstart() called on choehoyun-ui-MacBookAir.local
*** at Sun Aug  9 01:32:16 2026

   => Loading Basis Set <=

    Name: DEF2-TZVP
    Role: ORBITAL
    Keyword: BASIS
    atoms 1-4  entry C          line   123 file /Users/hoyoun/micromamba/envs/psi4env/share/psi4/basis/def2-tzvp.gbs 
    atoms 5-10 entry H          line    15 file /Users/hoyoun/micromamba/envs/psi4env/share/psi4/basis/def2-tzvp.gbs 

   => B3LYP-D3(BJ): Empirical Dispersion <=

    Grimme's -D3 (BJ-damping) Dispersion Correction
    Grimme S.; Ehrlich S.; Goerigk L. (2011), J. Comput. Chem., 32: 1456

        s6 =       1.000000
        s8 =       1.988900
        a1 =       0.398100
        a2 =       4.421100


         ---------------------------------------------------------
                                   SCF
               by Justin Turney, Rob Parrish, Andy Simmonett
                          and Daniel G. A. Smith
                              RKS Reference
                        1 Threads,   5722 MiB Core
         ---------------------------------------------------------

  ==> Geometry <==

    Molecular point group: c2v
    Full point group: C2v

    Geometry (in Angstrom), charge = 0, multiplicity = 1:

       Center              X                  Y                   Z               Mass       
    ------------   -----------------  -----------------  -----------------  -----------------
         C           -0.000000000000     0.667967129368    -0.927484637725    12.000000000000
         C           -0.000000000000     0.786398320872     0.585316235298    12.000000000000
         C            0.000000000000    -0.786398320872     0.585316235298    12.000000000000
         C            0.000000000000    -0.667967129368    -0.927484637725    12.000000000000
         H           -0.000000000000     1.413433339137    -1.713678565109     1.007825032230
         H            0.888155678502     1.244768420485     1.027923483768     1.007825032230
         H           -0.888155678502     1.244768420485     1.027923483768     1.007825032230
         H           -0.888155678502    -1.244768420485     1.027923483768     1.007825032230
         H            0.888155678502    -1.244768420485     1.027923483768     1.007825032230
         H            0.000000000000    -1.413433339137    -1.713678565109     1.007825032230

  Running in c2v symmetry.

  Rotational constants: A =      0.43221  B =      0.39922  C =      0.22516 [cm^-1]
  Rotational constants: A =  12957.24845  B =  11968.24838  C =   6750.06186 [MHz]
  Nuclear repulsion =  113.204273675331379

  Charge       = 0
  Multiplicity = 1
  Electrons    = 30
  Nalpha       = 15
  Nbeta        = 15

  ==> Algorithm <==

  SCF Algorithm Type is DF.
  DIIS enabled.
  MOM disabled.
  Fractional occupation disabled.
  Guess Type is SAD.
  Energy threshold   = 1.00e-06
  Density threshold  = 1.00e-06
  Integral threshold = 1.00e-12

  ==> Primary Basis <==

  Basis Set: DEF2-TZVP
    Blend: DEF2-TZVP
    Number of shells: 68
    Number of basis functions: 160
    Number of Cartesian functions: 180
    Spherical Harmonics?: true
    Max angular momentum: 3

  ==> DFT Potential <==

   => LibXC <=

    Version 7.1.2
    S. Lehtola, C. Steigemann, M. J. T. Oliveira, and M. A. L. Marques,  SoftwareX 7, 1–5 (2018) (10.1016/j.softx.2017.11.002)

   => Composite Functional: B3LYP-D3BJ2B <= 

    B3LYP-d3bj2b Hyb-GGA Exchange-Correlation Functional

    P. J. Stephens, F. J. Devlin, C. F. Chabalowski, and M. J. Frisch,  J. Phys. Chem. 98, 11623 (1994) (10.1021/j100096a001)

    Deriv               =              1
    GGA                 =           TRUE
    Meta                =          FALSE

    Exchange Hybrid     =           TRUE
    MP2 Hybrid          =          FALSE

   => Exchange Functionals <=

    0.0800   Slater exchange
    0.7200         Becke 88

   => Exact (HF) Exchange <=

    0.2000               HF 

   => Correlation Functionals <=

    0.1900   Vosko, Wilk & Nusair (VWN5_RPA)
    0.8100   Lee, Yang & Parr

   => LibXC Density Thresholds  <==

    XC_HYB_GGA_XC_B3LYP:  1.00E-15 

   => Molecular Quadrature <=

    Radial Scheme          =       TREUTLER
    Pruning Scheme         =           NONE
    Nuclear Scheme         =       TREUTLER

    Blocking Scheme        =         OCTREE
    BS radius alpha        =              1
    Pruning alpha          =              1
    Radial Points          =             75
    Spherical Points       =            302
    Total Points           =         214156
    Total Blocks           =           1656
    Max Points             =            256
    Max Functions          =            159
    Weights Tolerance      =       1.00E-15

   => Loading Basis Set <=

    Name: (DEF2-TZVP AUX)
    Role: JKFIT
    Keyword: DF_BASIS_SCF
    atoms 1-4  entry C          line   198 file /Users/hoyoun/micromamba/envs/psi4env/share/psi4/basis/def2-universal-jkfit.gbs 
    atoms 5-10 entry H          line    18 file /Users/hoyoun/micromamba/envs/psi4env/share/psi4/basis/def2-universal-jkfit.gbs 

  ==> Integral Setup <==

  DFHelper Memory: AOs need 0.084 GiB; user supplied 3.309 GiB. 
  SCF_SUBTYPE=INCORE selected. In-core MEM_DF algorithm will be used.
  Using in-core AOs.

  ==> MemDFJK: Density-Fitted J/K Matrices <==

    J tasked:                   Yes
    K tasked:                   Yes
    wK tasked:                   No
    OpenMP threads:               1
    Memory [MiB]:              3388
    Algorithm:                 Core
    Schwarz Cutoff:           1E-12
    Mask sparsity (%):       0.1875
    Fitting Condition:        1E-10

   => Auxiliary Basis Set <=

  Basis Set: (DEF2-TZVP AUX)
    Blend: DEF2-UNIVERSAL-JKFIT
    Number of shells: 136
    Number of basis functions: 408
    Number of Cartesian functions: 476
    Spherical Harmonics?: true
    Max angular momentum: 4

  Cached 100.0% of DFT collocation blocks in 0.882 [GiB].

  Minimum eigenvalue in the overlap matrix is 1.3727978428E-04.
  Reciprocal condition number of the overlap matrix is 1.5903911200E-05.
    Using symmetric orthogonalization.

  ==> Pre-Iterations <==

  SCF Guess: Superposition of Atomic Densities via on-the-fly atomic UHF (no occupation information).

   -------------------------
    Irrep   Nso     Nmo    
   -------------------------
     A1        53      53 
     A2        27      27 
     B1        27      27 
     B2        53      53 
   -------------------------
    Total     160     160
   -------------------------

  ==> Iterations <==

                           Total Energy        Delta E     RMS |[F,P]|

   @DF-RKS iter SAD:  -155.59432800291970   -1.55594e+02   0.00000e+00 
   @DF-RKS iter   1:  -155.55749209110738    3.68359e-02   1.14499e-02 ADIIS/DIIS
   @DF-RKS iter   2:  -155.00382080679583    5.53671e-01   1.64616e-02 ADIIS/DIIS
   @DF-RKS iter   3:  -156.04354588895413   -1.03973e+00   6.20181e-04 ADIIS/DIIS
   @DF-RKS iter   4:  -156.04451233292608   -9.66444e-04   1.96705e-04 ADIIS/DIIS
   @DF-RKS iter   5:  -156.04463461992177   -1.22287e-04   2.72031e-05 DIIS
   @DF-RKS iter   6:  -156.04463702798807   -2.40807e-06   1.23600e-05 DIIS
   @DF-RKS iter   7:  -156.04463754445626   -5.16468e-07   1.85397e-06 DIIS
   @DF-RKS iter   8:  -156.04463755653899   -1.20827e-08   1.54048e-07 DIIS
  Energy and wave function converged.


  ==> Post-Iterations <==

   Electrons on quadrature grid:
      Ntotal   =   29.9999966271 ; deviation = -3.373e-06 

    Orbital Energies [Eh]
    ---------------------

    Doubly Occupied:                                                      

       1A1   -10.173920     1B2   -10.173763     2A1   -10.171066  
       2B2   -10.170213     3A1    -0.856963     4A1    -0.658516  
       3B2    -0.645284     4B2    -0.517310     5A1    -0.501741  
       1B1    -0.460400     6A1    -0.385005     1A2    -0.364399  
       7A1    -0.331204     5B2    -0.321385     2B1    -0.255200  

    Virtual:                                                              

       2A2     0.008235     8A1     0.049359     6B2     0.069855  
       9A1     0.078646     3B1     0.085647     7B2     0.103590  
      10A1     0.120870     3A2     0.146623     8B2     0.157098  
      11A1     0.192207    12A1     0.196937     9B2     0.230832  
      13A1     0.236840     4B1     0.239166    10B2     0.251762  
       5B1     0.297441     4A2     0.327444    11B2     0.355096  
      14A1     0.361583    12B2     0.377378    15A1     0.382981  
      16A1     0.408629    17A1     0.412999    13B2     0.417933  
       6B1     0.422206     5A2     0.440108    14B2     0.456107  
      15B2     0.487682     6A2     0.501523    18A1     0.540087  
       7B1     0.565656    16B2     0.598053    17B2     0.673691  
       8B1     0.716163    18B2     0.720943    19A1     0.855400  
      20A1     0.880582    21A1     0.902680     9B1     0.936093  
       7A2     0.944678    22A1     0.982526    19B2     0.983416  
      10B1     1.008588     8A2     1.048853    23A1     1.057476  
      20B2     1.085566    24A1     1.149354     9A2     1.155416  
      21B2     1.162928    10A2     1.191026    22B2     1.216555  
      23B2     1.315658    24B2     1.369419    25A1     1.412907  
      11B1     1.442732    26A1     1.479097    25B2     1.518890  
      12B1     1.526022    11A2     1.607231    27A1     1.630575  
      26B2     1.631051    12A2     1.638132    28A1     1.719538  
      13B1     1.749170    29A1     1.765199    27B2     1.806241  
      14B1     1.821474    30A1     1.908053    15B1     2.009086  
      13A2     2.024964    28B2     2.033347    31A1     2.050044  
      32A1     2.091687    29B2     2.127758    16B1     2.172354  
      33A1     2.228039    30B2     2.228887    14A2     2.235386  
      34A1     2.433279    31B2     2.441586    17B1     2.448406  
      15A2     2.492754    18B1     2.515939    35A1     2.531857  
      16A2     2.571937    32B2     2.600167    36A1     2.602893  
      37A1     2.614057    33B2     2.634269    19B1     2.692729  
      17A2     2.701475    34B2     2.747956    35B2     2.810352  
      38A1     2.838903    39A1     2.876235    20B1     2.900706  
      36B2     2.931183    18A2     2.943911    40A1     2.986193  
      37B2     3.001708    21B1     3.023653    19A2     3.095938  
      41A1     3.118227    42A1     3.148328    38B2     3.164609  
      43A1     3.210434    39B2     3.213928    20A2     3.224351  
      22B1     3.296982    40B2     3.308989    23B1     3.335631  
      41B2     3.446317    44A1     3.455109    24B1     3.506561  
      25B1     3.543187    21A2     3.544814    42B2     3.640800  
      45A1     3.656995    22A2     3.671315    43B2     3.708791  
      23A2     3.906269    46A1     3.910069    26B1     3.924760  
      47A1     4.012557    44B2     4.046288    24A2     4.056894  
      27B1     4.170337    48A1     4.243184    25A2     4.252269  
      45B2     4.290282    49A1     4.346785    26A2     4.388252  
      46B2     4.464804    27A2     4.514573    47B2     4.540521  
      50A1     4.547393    48B2     4.727318    51A1     4.747448  
      49B2     4.914053    50B2     5.091601    51B2     5.350632  
      52A1    22.009678    53A1    22.379829    52B2    22.449058  
      53B2    22.727633  

    Final Occupation by Irrep:
             A1    A2    B1    B2 
    DOCC [     7,    1,    2,    5 ]
    NA   [     7,    1,    2,    5 ]
    NB   [     7,    1,    2,    5 ]

  @DF-RKS Final Energy:  -156.04463755653899

   => Energetics <=

    Nuclear Repulsion Energy =            113.2042736753313790
    One-Electron Energy =                -432.5636898238802814
    Two-Electron Energy =                 182.7073360718970605
    DFT Exchange-Correlation Energy =     -19.3815654113795190
    Empirical Dispersion Energy =          -0.0109920685076166
    VV10 Nonlocal Energy =                  0.0000000000000000
    Total Energy =                       -156.0446375565389872

Computation Completed


Properties will be evaluated at   0.000000,   0.000000,   0.000000 [a0]

Properties computed using the SCF density matrix


 Multipole Moments:

 ------------------------------------------------------------------------------------
     Multipole            Electronic (a.u.)      Nuclear  (a.u.)        Total (a.u.)
 ------------------------------------------------------------------------------------

 L = 1.  Multiply by 2.5417464519 to convert [e a0] to [Debye]
 Dipole X            :          0.0000000            0.0000000            0.0000000
 Dipole Y            :          0.0000000           -0.0000000           -0.0000000
 Dipole Z            :          6.5235644           -6.4660457            0.0575187
 Magnitude           :                                                    0.0575187

 ------------------------------------------------------------------------------------

*** tstop() called on choehoyun-ui-MacBookAir.local at Sun Aug  9 01:32:25 2026
Module time:
	user time   =       8.44 seconds =       0.14 minutes
	system time =       0.28 seconds =       0.00 minutes
	total time  =          9 seconds =       0.15 minutes
Total time:
	user time   =       8.44 seconds =       0.14 minutes
	system time =       0.28 seconds =       0.00 minutes
	total time  =          9 seconds =       0.15 minutes

    Psi4 stopped on: Sunday, 09 August 2026 01:32AM
    Psi4 wall time for execution: 0:00:08.85

*** Psi4 exiting successfully. Buy a developer a beer!
