
    -----------------------------------------------------------------------
          Psi4: An Open-Source Ab Initio Electronic Structure Package
                               Psi4 1.11 release

                         Git: Rev {} zzzzzzz 


    D. G. A. Smith, L. A. Burns, A. C. Simmonett, R. M. Parrish,
    M. C. Schieber, R. Galvelis, P. Kraus, H. Kruse, R. Di Remigio,
    A. Alenaizan, A. M. James, S. Lehtola, J. P. Misiewicz, M. Scheurer,
    R. A. Shaw, J. B. Schriber, Y. Xie, Z. L. Glick, D. A. Sirianni,
    J. S. O'Brien, J. M. Waldrop, A. Kumar, E. G. Hohenstein,
    B. P. Pritchard, B. R. Brooks, H. F. Schaefer III, A. Yu. Sokolov,
    K. Patkowski, A. E. DePrince III, U. Bozkaya, R. A. King,
    F. A. Evangelista, J. M. Turney, T. D. Crawford, C. D. Sherrill,
    J. Chem. Phys. 152(18) 184108 (2020). https://doi.org/10.1063/5.0006002

                            Additional Code Authors
    E. T. Seidl, C. L. Janssen, E. F. Valeev, M. L. Leininger,
    J. F. Gonthier, R. M. Richard, H. R. McAlexander, M. Saitow, X. Wang,
    P. Verma, M. H. Lechner, A. Jiang, S. Behnle, A. G. Heide,
    M. F. Herbst, D. L. Poole, T. Győri, E. C. Mitchell, J. P. Pederson,
    and A. M. Wallace

             Previous Authors, Complete List of Code Contributors,
                       and Citations for Specific Modules
    https://github.com/psi4/psi4/blob/master/codemeta.json
    https://github.com/psi4/psi4/graphs/contributors
    https://psicode.org/psi4manual/master/introduction.html#citing-psifour

    -----------------------------------------------------------------------


    Psi4 started on: Sunday, 09 August 2026 12:52PM

    Process ID: 58579
    Host:       choehoyun-ui-MacBookAir.local
    PSIDATADIR: /Users/hoyoun/micromamba/envs/psi4env/share/psi4
    Memory:     500.0 MiB
    Threads:    8
    Addons:     a̶d̶c̶c̶, a̶m̶b̶i̶t̶, b̶s̶e̶, c̶c̶t̶3̶, c̶f̶o̶u̶r̶, c̶h̶e̶m̶p̶s̶2̶, c̶p̶p̶e̶, d̶d̶x̶, dftd3,
                d̶f̶t̶d̶4̶, dkh, ecpint, einsums, f̶o̶r̶t̶e̶, gauxc, g̶c̶p̶, g̶d̶m̶a̶,
                g̶e̶o̶m̶e̶t̶r̶i̶c̶, g̶p̶u̶_̶d̶f̶c̶c̶, i̶n̶t̶e̶g̶r̶a̶t̶o̶r̶x̶x̶, i̶p̶i̶,
                l̶i̶b̶e̶f̶p̶, m̶d̶i̶, m̶p̶2̶d̶, m̶r̶c̶c̶, ooo, o̶p̶e̶n̶f̶e̶r̶m̶i̶o̶n̶p̶s̶i̶4̶,
                pcmsolver, p̶s̶i̶4̶f̶o̶c̶k̶c̶i̶, p̶s̶i̶x̶a̶s̶, p̶y̶e̶i̶n̶s̶u̶m̶s̶, r̶e̶s̶p̶,
                s̶i̶m̶i̶n̶t̶, s̶n̶s̶m̶p̶2̶, v̶2̶r̶d̶m̶_̶c̶a̶s̶s̶c̶f̶

  ==> Input File <==

--------------------------------------------------------------------------
memory 3 GB
molecule mol {
0 1
O -1.72343757117871 -1.30912289640420 0.48350885506904
S -1.53520798447537 0.24396859566813 0.17220870576220
O -2.42759087689898 0.64613867515999 -0.87222349874441
O -1.41355995387079 0.89035679994222 1.43698336739227
O -0.06586719719852 0.24573951679433 -0.59351783116958
S 1.36137586836423 0.12591621564084 0.27091155864992
O 2.27548591975993 -0.13523732234947 -1.00931922742664
O 1.65008952088186 1.41502722885556 0.82289522614347
O 1.33946087252250 -1.08526596441223 1.02361616973193
H -1.98448218757930 -1.76592009825845 -0.34043220466797
H 2.52373358967314 0.72839924936329 -1.39463112074025
units angstrom
no_reorient
no_com
}
set basis def2-TZVP
set scf_type df
set freeze_core true
set e_convergence 8
energy('b3lyp-d3bj')
--------------------------------------------------------------------------

  Memory set to   2.794 GiB by Python driver.

Scratch directory: /Users/hoyoun/Documents/Yonsei_AX_Camp/(진짜_이게_최종)/calibration/dft_work/_scratch/H2S2O7_3/
   => Libint2 <=

    Primary   basis highest AM E, G, H:  7, 6, 3
    Auxiliary basis highest AM E, G, H:  7, 7, 4
    Onebody   basis highest AM E, G, H:  -, -, -
    Solid Harmonics ordering:            Gaussian

*** tstart() called on choehoyun-ui-MacBookAir.local
*** at Sun Aug  9 12:52:00 2026

   => Loading Basis Set <=

    Name: DEF2-TZVP
    Role: ORBITAL
    Keyword: BASIS
    atoms 1, 3-5, 7-9 entry O          line   189 file /Users/hoyoun/micromamba/envs/psi4env/share/psi4/basis/def2-tzvp.gbs 
    atoms 2, 6        entry S          line   492 file /Users/hoyoun/micromamba/envs/psi4env/share/psi4/basis/def2-tzvp.gbs 
    atoms 10-11       entry H          line    15 file /Users/hoyoun/micromamba/envs/psi4env/share/psi4/basis/def2-tzvp.gbs 

   => B3LYP-D3(BJ): Empirical Dispersion <=

    Grimme's -D3 (BJ-damping) Dispersion Correction
    Grimme S.; Ehrlich S.; Goerigk L. (2011), J. Comput. Chem., 32: 1456

        s6 =       1.000000
        s8 =       1.988900
        a1 =       0.398100
        a2 =       4.421100


         ---------------------------------------------------------
                                   SCF
               by Justin Turney, Rob Parrish, Andy Simmonett
                          and Daniel G. A. Smith
                              RKS Reference
                        8 Threads,   2861 MiB Core
         ---------------------------------------------------------

  ==> Geometry <==

    Molecular point group: c1
    Full point group: C1

    Geometry (in Angstrom), charge = 0, multiplicity = 1:

       Center              X                  Y                   Z               Mass       
    ------------   -----------------  -----------------  -----------------  -----------------
         O           -1.723437571179    -1.309122896404     0.483508855069    15.994914619570
         S           -1.535207984475     0.243968595668     0.172208705762    31.972071174400
         O           -2.427590876899     0.646138675160    -0.872223498744    15.994914619570
         O           -1.413559953871     0.890356799942     1.436983367392    15.994914619570
         O           -0.065867197199     0.245739516794    -0.593517831170    15.994914619570
         S            1.361375868364     0.125916215641     0.270911558650    31.972071174400
         O            2.275485919760    -0.135237322349    -1.009319227427    15.994914619570
         O            1.650089520882     1.415027228856     0.822895226143    15.994914619570
         O            1.339460872523    -1.085265964412     1.023616169732    15.994914619570
         H           -1.984482187579    -1.765920098258    -0.340432204668     1.007825032230
         H            2.523733589673     0.728399249363    -1.394631120740     1.007825032230

  Running in c1 symmetry.

  Rotational constants: A =      0.08075  B =      0.02936  C =      0.02895 [cm^-1]
  Rotational constants: A =   2420.84900  B =    880.12302  C =    867.79871 [MHz]
  Nuclear repulsion =  794.221275114175114

  Charge       = 0
  Multiplicity = 1
  Electrons    = 90
  Nalpha       = 45
  Nbeta        = 45

  ==> Algorithm <==

  SCF Algorithm Type is DF.
  DIIS enabled.
  MOM disabled.
  Fractional occupation disabled.
  Guess Type is SAD.
  Energy threshold   = 1.00e-08
  Density threshold  = 1.00e-06
  Integral threshold = 1.00e-12

  ==> Primary Basis <==

  Basis Set: DEF2-TZVP
    Blend: DEF2-TZVP
    Number of shells: 111
    Number of basis functions: 303
    Number of Cartesian functions: 348
    Spherical Harmonics?: true
    Max angular momentum: 3

  ==> DFT Potential <==

   => LibXC <=

    Version 7.1.2
    S. Lehtola, C. Steigemann, M. J. T. Oliveira, and M. A. L. Marques,  SoftwareX 7, 1–5 (2018) (10.1016/j.softx.2017.11.002)

   => Composite Functional: B3LYP-D3BJ2B <= 

    B3LYP-d3bj2b Hyb-GGA Exchange-Correlation Functional

    P. J. Stephens, F. J. Devlin, C. F. Chabalowski, and M. J. Frisch,  J. Phys. Chem. 98, 11623 (1994) (10.1021/j100096a001)

    Deriv               =              1
    GGA                 =           TRUE
    Meta                =          FALSE

    Exchange Hybrid     =           TRUE
    MP2 Hybrid          =          FALSE

   => Exchange Functionals <=

    0.0800   Slater exchange
    0.7200         Becke 88

   => Exact (HF) Exchange <=

    0.2000               HF 

   => Correlation Functionals <=

    0.1900   Vosko, Wilk & Nusair (VWN5_RPA)
    0.8100   Lee, Yang & Parr

   => LibXC Density Thresholds  <==

    XC_HYB_GGA_XC_B3LYP:  1.00E-15 

   => Molecular Quadrature <=

    Radial Scheme          =       TREUTLER
    Pruning Scheme         =           NONE
    Nuclear Scheme         =       TREUTLER

    Blocking Scheme        =         OCTREE
    BS radius alpha        =              1
    Pruning alpha          =              1
    Radial Points          =             75
    Spherical Points       =            302
    Total Points           =         233138
    Total Blocks           =           1769
    Max Points             =            256
    Max Functions          =            270
    Weights Tolerance      =       1.00E-15

   => Loading Basis Set <=

    Name: (DEF2-TZVP AUX)
    Role: JKFIT
    Keyword: DF_BASIS_SCF
    atoms 1, 3-5, 7-9 entry O          line   318 file /Users/hoyoun/micromamba/envs/psi4env/share/psi4/basis/def2-universal-jkfit.gbs 
    atoms 2, 6        entry S          line   903 file /Users/hoyoun/micromamba/envs/psi4env/share/psi4/basis/def2-universal-jkfit.gbs 
    atoms 10-11       entry H          line    18 file /Users/hoyoun/micromamba/envs/psi4env/share/psi4/basis/def2-universal-jkfit.gbs 

  ==> Integral Setup <==

  DFHelper Memory: AOs need 0.531 GiB; user supplied 0.910 GiB. 
  SCF_SUBTYPE=INCORE selected. In-core MEM_DF algorithm will be used.
  Using in-core AOs.

  ==> MemDFJK: Density-Fitted J/K Matrices <==

    J tasked:                   Yes
    K tasked:                   Yes
    wK tasked:                   No
    OpenMP threads:               8
    Memory [MiB]:               931
    Algorithm:                 Core
    Schwarz Cutoff:           1E-12
    Mask sparsity (%):      11.7657
    Fitting Condition:        1E-10

   => Auxiliary Basis Set <=

  Basis Set: (DEF2-TZVP AUX)
    Blend: DEF2-UNIVERSAL-JKFIT
    Number of shells: 263
    Number of basis functions: 831
    Number of Cartesian functions: 1001
    Spherical Harmonics?: true
    Max angular momentum: 4

  Cached 100.0% of DFT collocation blocks in 1.186 [GiB].

  Minimum eigenvalue in the overlap matrix is 8.0807231863E-04.
  Reciprocal condition number of the overlap matrix is 1.3501707287E-04.
    Using symmetric orthogonalization.

  ==> Pre-Iterations <==

  SCF Guess: Superposition of Atomic Densities via on-the-fly atomic UHF (no occupation information).

   -------------------------
    Irrep   Nso     Nmo    
   -------------------------
     A        303     303 
   -------------------------
    Total     303     303
   -------------------------

  ==> Iterations <==

                           Total Energy        Delta E     RMS |[F,P]|

   @DF-RKS iter SAD: -1324.95786106816422   -1.32496e+03   0.00000e+00 
   @DF-RKS iter   1: -1323.67385580651717    1.28401e+00   5.05854e-03 DIIS/ADIIS
   @DF-RKS iter   2: -1321.84714668220658    1.82671e+00   9.09962e-03 DIIS/ADIIS
   @DF-RKS iter   3: -1324.34717209145447   -2.50003e+00   1.52180e-03 DIIS/ADIIS
   @DF-RKS iter   4: -1324.40774485893348   -6.05728e-02   7.30912e-04 DIIS/ADIIS
   @DF-RKS iter   5: -1324.42352612454874   -1.57813e-02   1.40197e-04 DIIS/ADIIS
   @DF-RKS iter   6: -1324.42410889275811   -5.82768e-04   5.20935e-05 DIIS
   @DF-RKS iter   7: -1324.42418446125930   -7.55685e-05   2.02397e-05 DIIS
   @DF-RKS iter   8: -1324.42419765070281   -1.31894e-05   2.39498e-06 DIIS
   @DF-RKS iter   9: -1324.42419768548825   -3.47854e-08   2.17104e-06 DIIS
   @DF-RKS iter  10: -1324.42419783206992   -1.46582e-07   2.86354e-07 DIIS
   @DF-RKS iter  11: -1324.42419783414880   -2.07888e-09   1.36349e-07 DIIS
  Energy and wave function converged.


  ==> Post-Iterations <==

   Electrons on quadrature grid:
      Ntotal   =   89.9999900817 ; deviation = -9.918e-06 

    Orbital Energies [Eh]
    ---------------------

    Doubly Occupied:                                                      

       1A    -89.144276     2A    -89.142775     3A    -19.240112  
       4A    -19.238078     5A    -19.233105     6A    -19.179543  
       7A    -19.178683     8A    -19.177853     9A    -19.176368  
      10A     -8.184221    11A     -8.182388    12A     -6.149007  
      13A     -6.147708    14A     -6.147330    15A     -6.145743  
      16A     -6.144545    17A     -6.142829    18A     -1.233068  
      19A     -1.204068    20A     -1.102920    21A     -1.096610  
      22A     -1.079239    23A     -1.072918    24A     -1.071987  
      25A     -0.759275    26A     -0.692262    27A     -0.650742  
      28A     -0.583239    29A     -0.559570    30A     -0.545022  
      31A     -0.535983    32A     -0.515785    33A     -0.491131  
      34A     -0.480888    35A     -0.457643    36A     -0.448035  
      37A     -0.422648    38A     -0.417701    39A     -0.409969  
      40A     -0.393000    41A     -0.384505    42A     -0.374461  
      43A     -0.372011    44A     -0.361820    45A     -0.356185  

    Virtual:                                                              

      46A     -0.040740    47A     -0.009964    48A      0.001191  
      49A      0.016973    50A      0.045751    51A      0.050581  
      52A      0.055742    53A      0.068626    54A      0.119385  
      55A      0.136136    56A      0.203969    57A      0.217205  
      58A      0.226287    59A      0.244006    60A      0.256537  
      61A      0.272768    62A      0.308387    63A      0.324081  
      64A      0.325825    65A      0.338721    66A      0.353448  
      67A      0.361914    68A      0.371682    69A      0.376894  
      70A      0.389954    71A      0.395627    72A      0.400655  
      73A      0.406770    74A      0.422835    75A      0.425667  
      76A      0.468801    77A      0.475422    78A      0.486155  
      79A      0.498094    80A      0.505993    81A      0.520542  
      82A      0.526386    83A      0.531403    84A      0.545603  
      85A      0.557813    86A      0.571909    87A      0.592005  
      88A      0.627528    89A      0.665716    90A      0.670236  
      91A      0.706500    92A      0.717312    93A      0.751274  
      94A      0.790948    95A      0.801057    96A      0.816489  
      97A      0.834034    98A      0.843399    99A      0.852237  
     100A      0.893154   101A      0.910810   102A      0.987895  
     103A      1.018704   104A      1.149025   105A      1.155627  
     106A      1.182641   107A      1.192724   108A      1.204709  
     109A      1.260205   110A      1.261975   111A      1.275717  
     112A      1.281569   113A      1.303815   114A      1.318959  
     115A      1.340241   116A      1.353006   117A      1.401055  
     118A      1.407432   119A      1.424117   120A      1.449362  
     121A      1.466670   122A      1.485008   123A      1.497285  
     124A      1.502392   125A      1.539125   126A      1.546749  
     127A      1.568215   128A      1.588966   129A      1.589125  
     130A      1.629180   131A      1.661208   132A      1.716904  
     133A      1.733329   134A      1.763053   135A      1.771322  
     136A      1.789695   137A      1.841376   138A      1.842836  
     139A      1.868343   140A      1.903093   141A      1.907297  
     142A      1.917339   143A      1.965838   144A      1.994963  
     145A      2.005050   146A      2.036912   147A      2.048086  
     148A      2.070136   149A      2.082715   150A      2.099647  
     151A      2.120224   152A      2.134205   153A      2.156485  
     154A      2.174087   155A      2.204876   156A      2.216005  
     157A      2.231519   158A      2.256418   159A      2.267967  
     160A      2.292829   161A      2.299088   162A      2.312056  
     163A      2.338331   164A      2.344374   165A      2.354109  
     166A      2.364951   167A      2.377879   168A      2.382860  
     169A      2.396609   170A      2.447034   171A      2.456978  
     172A      2.491190   173A      2.499496   174A      2.598294  
     175A      2.666303   176A      2.673682   177A      2.697294  
     178A      2.748036   179A      2.761548   180A      2.813475  
     181A      2.844553   182A      2.864253   183A      2.904938  
     184A      2.913904   185A      2.928243   186A      2.952913  
     187A      2.973681   188A      3.008138   189A      3.029219  
     190A      3.043684   191A      3.080971   192A      3.087166  
     193A      3.124425   194A      3.136756   195A      3.361200  
     196A      3.436631   197A      3.666513   198A      3.672508  
     199A      3.720732   200A      3.768227   201A      3.893234  
     202A      3.978258   203A      4.061256   204A      4.099854  
     205A      5.005585   206A      5.009190   207A      5.013400  
     208A      5.017977   209A      5.027052   210A      5.044087  
     211A      5.063432   212A      5.067807   213A      5.074807  
     214A      5.077812   215A      5.078968   216A      5.081824  
     217A      5.083114   218A      5.086659   219A      5.090922  
     220A      5.092245   221A      5.096376   222A      5.121916  
     223A      5.141066   224A      5.146923   225A      5.171134  
     226A      5.190348   227A      5.197625   228A      5.205149  
     229A      5.217449   230A      5.222761   231A      5.236768  
     232A      5.242840   233A      5.268570   234A      5.312732  
     235A      5.315192   236A      5.326632   237A      5.346132  
     238A      5.358748   239A      5.389371   240A      5.397763  
     241A      5.438379   242A      5.575106   243A      5.602224  
     244A      5.614784   245A      5.624875   246A      5.643001  
     247A      5.676222   248A      5.691878   249A      5.713213  
     250A      5.794283   251A      5.823237   252A      6.065364  
     253A      6.072580   254A      6.209646   255A      6.218849  
     256A      6.225135   257A      6.241727   258A      6.256202  
     259A      6.263184   260A      6.301644   261A      6.307826  
     262A      6.340179   263A      6.349958   264A      6.403827  
     265A      6.445477   266A      6.487174   267A      6.501424  
     268A      6.519377   269A      6.541512   270A      6.621288  
     271A      6.644424   272A      6.647698   273A      6.671849  
     274A      6.681846   275A      6.712485   276A      6.716921  
     277A      6.763468   278A      6.777851   279A      6.789022  
     280A      6.807457   281A      6.843390   282A      6.854201  
     283A      6.894768   284A      6.906381   285A      6.923967  
     286A      6.940704   287A      7.000778   288A      7.060191  
     289A      9.099581   290A      9.149048   291A      9.243465  
     292A      9.276499   293A      9.603858   294A      9.622115  
     295A     22.151720   296A     22.262970   297A     43.219349  
     298A     43.343802   299A     43.374105   300A     43.484209  
     301A     43.574704   302A     43.653540   303A     43.724807  

    Final Occupation by Irrep:
              A 
    DOCC [    45 ]
    NA   [    45 ]
    NB   [    45 ]

  @DF-RKS Final Energy: -1324.42419783414880

   => Energetics <=

    Nuclear Repulsion Energy =            794.2212751141751141
    One-Electron Energy =               -3404.2427845999563942
    Two-Electron Energy =                1376.5181642514291980
    DFT Exchange-Correlation Energy =     -90.8991757836411978
    Empirical Dispersion Energy =          -0.0216768161556441
    VV10 Nonlocal Energy =                  0.0000000000000000
    Total Energy =                      -1324.4241978341487993

Computation Completed


Properties will be evaluated at   0.000000,   0.000000,   0.000000 [a0]

Properties computed using the SCF density matrix


 Multipole Moments:

 ------------------------------------------------------------------------------------
     Multipole            Electronic (a.u.)      Nuclear  (a.u.)        Total (a.u.)
 ------------------------------------------------------------------------------------

 L = 1.  Multiply by 2.5417464519 to convert [e a0] to [Debye]
 Dipole X            :         10.1211257           -9.7612230            0.3599027
 Dipole Y            :        -19.8472533           19.3162597           -0.5309935
 Dipole Z            :        -31.0479311           29.6505690           -1.3973621
 Magnitude           :                                                    1.5375647

 ------------------------------------------------------------------------------------

*** tstop() called on choehoyun-ui-MacBookAir.local at Sun Aug  9 12:52:08 2026
Module time:
	user time   =      42.54 seconds =       0.71 minutes
	system time =       1.44 seconds =       0.02 minutes
	total time  =          8 seconds =       0.13 minutes
Total time:
	user time   =      42.54 seconds =       0.71 minutes
	system time =       1.44 seconds =       0.02 minutes
	total time  =          8 seconds =       0.13 minutes

    Psi4 stopped on: Sunday, 09 August 2026 12:52PM
    Psi4 wall time for execution: 0:00:08.18

*** Psi4 exiting successfully. Buy a developer a beer!
