
    -----------------------------------------------------------------------
          Psi4: An Open-Source Ab Initio Electronic Structure Package
                               Psi4 1.11 release

                         Git: Rev {} zzzzzzz 


    D. G. A. Smith, L. A. Burns, A. C. Simmonett, R. M. Parrish,
    M. C. Schieber, R. Galvelis, P. Kraus, H. Kruse, R. Di Remigio,
    A. Alenaizan, A. M. James, S. Lehtola, J. P. Misiewicz, M. Scheurer,
    R. A. Shaw, J. B. Schriber, Y. Xie, Z. L. Glick, D. A. Sirianni,
    J. S. O'Brien, J. M. Waldrop, A. Kumar, E. G. Hohenstein,
    B. P. Pritchard, B. R. Brooks, H. F. Schaefer III, A. Yu. Sokolov,
    K. Patkowski, A. E. DePrince III, U. Bozkaya, R. A. King,
    F. A. Evangelista, J. M. Turney, T. D. Crawford, C. D. Sherrill,
    J. Chem. Phys. 152(18) 184108 (2020). https://doi.org/10.1063/5.0006002

                            Additional Code Authors
    E. T. Seidl, C. L. Janssen, E. F. Valeev, M. L. Leininger,
    J. F. Gonthier, R. M. Richard, H. R. McAlexander, M. Saitow, X. Wang,
    P. Verma, M. H. Lechner, A. Jiang, S. Behnle, A. G. Heide,
    M. F. Herbst, D. L. Poole, T. Győri, E. C. Mitchell, J. P. Pederson,
    and A. M. Wallace

             Previous Authors, Complete List of Code Contributors,
                       and Citations for Specific Modules
    https://github.com/psi4/psi4/blob/master/codemeta.json
    https://github.com/psi4/psi4/graphs/contributors
    https://psicode.org/psi4manual/master/introduction.html#citing-psifour

    -----------------------------------------------------------------------


    Psi4 started on: Sunday, 09 August 2026 03:46PM

    Process ID: 60747
    Host:       choehoyun-ui-MacBookAir.local
    PSIDATADIR: /Users/hoyoun/micromamba/envs/psi4env/share/psi4
    Memory:     500.0 MiB
    Threads:    8
    Addons:     a̶d̶c̶c̶, a̶m̶b̶i̶t̶, b̶s̶e̶, c̶c̶t̶3̶, c̶f̶o̶u̶r̶, c̶h̶e̶m̶p̶s̶2̶, c̶p̶p̶e̶, d̶d̶x̶, dftd3,
                d̶f̶t̶d̶4̶, dkh, ecpint, einsums, f̶o̶r̶t̶e̶, gauxc, g̶c̶p̶, g̶d̶m̶a̶,
                g̶e̶o̶m̶e̶t̶r̶i̶c̶, g̶p̶u̶_̶d̶f̶c̶c̶, i̶n̶t̶e̶g̶r̶a̶t̶o̶r̶x̶x̶, i̶p̶i̶,
                l̶i̶b̶e̶f̶p̶, m̶d̶i̶, m̶p̶2̶d̶, m̶r̶c̶c̶, ooo, o̶p̶e̶n̶f̶e̶r̶m̶i̶o̶n̶p̶s̶i̶4̶,
                pcmsolver, p̶s̶i̶4̶f̶o̶c̶k̶c̶i̶, p̶s̶i̶x̶a̶s̶, p̶y̶e̶i̶n̶s̶u̶m̶s̶, r̶e̶s̶p̶,
                s̶i̶m̶i̶n̶t̶, s̶n̶s̶m̶p̶2̶, v̶2̶r̶d̶m̶_̶c̶a̶s̶s̶c̶f̶

  ==> Input File <==

--------------------------------------------------------------------------
memory 3 GB
molecule mol {
0 1
O 1.17175676252388 0.20002702801151 -1.16421622194623
C 2.18375676750472 0.24402702822807 -0.50321621869293
O 3.30475677302203 -0.43597297511873 -0.81121622020884
H 3.08875677195893 -0.95397297766822 -1.60121622409704
C 2.37675676845463 1.05602703222455 0.76178378753312
H 3.26175677281040 1.67602703527606 0.62878378687852
H 2.56375676937500 0.37002702884822 1.58478379158374
N 1.23575676283888 1.87902703627518 1.04378378892106
H 0.42775675886208 1.45102703416866 1.47878379106203
C 0.97975676157890 2.91102704135445 0.18478378469325
O 1.81575676569350 3.37202704362339 -0.57821621906207
C -0.46624324553799 3.38402704368245 0.21078378482122
H -0.53724324588744 4.30702704822525 -0.35521621796451
H -0.81224324724092 3.53902704444533 1.23078378984143
N -1.30224324965260 2.36802703868193 -0.40021621818599
H -1.29724324962799 2.23702703803717 -1.40321622312253
C -1.73124325176404 1.30402703344515 0.30678378529371
O -1.60524325114390 1.20702703296774 1.53078379131796
C -2.42724325518960 0.23502702818378 -0.53321621884059
N -1.87824325248754 0.26102702831174 -1.88521622549483
H -0.93024324782169 -0.10497297348963 -1.87621622545054
H -2.43024325520436 -0.32197297455765 -2.50121622852664
H -3.47324326033777 0.54902702972921 -0.60321621918511
C -2.40824325509608 -1.12297297850000 0.18978378471786
H -2.82424325714354 -0.98097297780111 1.18678378962487
H -3.07224325836414 -1.79397298180251 -0.35821621797928
C -1.04424324838277 -1.74597298156626 0.28478378518543
C -0.55124324595634 -2.53997298547416 -0.75521621993322
H -1.17324324901769 -2.72497298638469 -1.62221622420040
C 0.71375676026971 -3.12097298833371 -0.68021621956409
H 1.07075676202678 -3.74097299138521 -1.49221622356057
C 1.50675676417268 -2.92097298734935 0.44778378598768
H 2.48475676898617 -3.37697298959369 0.51578378632236
C 1.02175676178561 -2.14097298351037 1.49778379115555
H 1.61975676472884 -2.00597298284593 2.38978379554577
C -0.24124324443059 -1.55797298064097 1.41578379075196
H -0.62224324630579 -0.95997297769775 2.23378379477797
units angstrom
no_reorient
no_com
}
set basis def2-TZVP
set scf_type df
set freeze_core true
set e_convergence 8
energy('b3lyp-d3bj')
--------------------------------------------------------------------------

  Memory set to   2.794 GiB by Python driver.

Scratch directory: /Users/hoyoun/Documents/Yonsei_AX_Camp/(진짜_이게_최종)/calibration/dft_work/_scratch/99/
   => Libint2 <=

    Primary   basis highest AM E, G, H:  7, 6, 3
    Auxiliary basis highest AM E, G, H:  7, 7, 4
    Onebody   basis highest AM E, G, H:  -, -, -
    Solid Harmonics ordering:            Gaussian

*** tstart() called on choehoyun-ui-MacBookAir.local
*** at Sun Aug  9 15:46:55 2026

   => Loading Basis Set <=

    Name: DEF2-TZVP
    Role: ORBITAL
    Keyword: BASIS
    atoms 1, 3, 11, 18                                           entry O          line   189 file /Users/hoyoun/micromamba/envs/psi4env/share/psi4/basis/def2-tzvp.gbs 
    atoms 2, 5, 10, 12, 17, 19, 24, 27-28, 30, 32, 34, 36        entry C          line   123 file /Users/hoyoun/micromamba/envs/psi4env/share/psi4/basis/def2-tzvp.gbs 
    atoms 4, 6-7, 9, 13-14, 16, 21-23, 25-26, 29, 31, 33, 35, 37 entry H          line    15 file /Users/hoyoun/micromamba/envs/psi4env/share/psi4/basis/def2-tzvp.gbs 
    atoms 8, 15, 20                                              entry N          line   156 file /Users/hoyoun/micromamba/envs/psi4env/share/psi4/basis/def2-tzvp.gbs 

   => B3LYP-D3(BJ): Empirical Dispersion <=

    Grimme's -D3 (BJ-damping) Dispersion Correction
    Grimme S.; Ehrlich S.; Goerigk L. (2011), J. Comput. Chem., 32: 1456

        s6 =       1.000000
        s8 =       1.988900
        a1 =       0.398100
        a2 =       4.421100


         ---------------------------------------------------------
                                   SCF
               by Justin Turney, Rob Parrish, Andy Simmonett
                          and Daniel G. A. Smith
                              RKS Reference
                        8 Threads,   2861 MiB Core
         ---------------------------------------------------------

  ==> Geometry <==

    Molecular point group: c1
    Full point group: C1

    Geometry (in Angstrom), charge = 0, multiplicity = 1:

       Center              X                  Y                   Z               Mass       
    ------------   -----------------  -----------------  -----------------  -----------------
         O            1.171756762524     0.200027028012    -1.164216221946    15.994914619570
         C            2.183756767505     0.244027028228    -0.503216218693    12.000000000000
         O            3.304756773022    -0.435972975119    -0.811216220209    15.994914619570
         H            3.088756771959    -0.953972977668    -1.601216224097     1.007825032230
         C            2.376756768455     1.056027032225     0.761783787533    12.000000000000
         H            3.261756772810     1.676027035276     0.628783786879     1.007825032230
         H            2.563756769375     0.370027028848     1.584783791584     1.007825032230
         N            1.235756762839     1.879027036275     1.043783788921    14.003074004430
         H            0.427756758862     1.451027034169     1.478783791062     1.007825032230
         C            0.979756761579     2.911027041354     0.184783784693    12.000000000000
         O            1.815756765694     3.372027043623    -0.578216219062    15.994914619570
         C           -0.466243245538     3.384027043682     0.210783784821    12.000000000000
         H           -0.537243245887     4.307027048225    -0.355216217965     1.007825032230
         H           -0.812243247241     3.539027044445     1.230783789841     1.007825032230
         N           -1.302243249653     2.368027038682    -0.400216218186    14.003074004430
         H           -1.297243249628     2.237027038037    -1.403216223123     1.007825032230
         C           -1.731243251764     1.304027033445     0.306783785294    12.000000000000
         O           -1.605243251144     1.207027032968     1.530783791318    15.994914619570
         C           -2.427243255190     0.235027028184    -0.533216218841    12.000000000000
         N           -1.878243252488     0.261027028312    -1.885216225495    14.003074004430
         H           -0.930243247822    -0.104972973490    -1.876216225451     1.007825032230
         H           -2.430243255204    -0.321972974558    -2.501216228527     1.007825032230
         H           -3.473243260338     0.549027029729    -0.603216219185     1.007825032230
         C           -2.408243255096    -1.122972978500     0.189783784718    12.000000000000
         H           -2.824243257144    -0.980972977801     1.186783789625     1.007825032230
         H           -3.072243258364    -1.793972981803    -0.358216217979     1.007825032230
         C           -1.044243248383    -1.745972981566     0.284783785185    12.000000000000
         C           -0.551243245956    -2.539972985474    -0.755216219933    12.000000000000
         H           -1.173243249018    -2.724972986385    -1.622216224200     1.007825032230
         C            0.713756760270    -3.120972988334    -0.680216219564    12.000000000000
         H            1.070756762027    -3.740972991385    -1.492216223561     1.007825032230
         C            1.506756764173    -2.920972987349     0.447783785988    12.000000000000
         H            2.484756768986    -3.376972989594     0.515783786322     1.007825032230
         C            1.021756761786    -2.140972983510     1.497783791156    12.000000000000
         H            1.619756764729    -2.005972982846     2.389783795546     1.007825032230
         C           -0.241243244431    -1.557972980641     1.415783790752    12.000000000000
         H           -0.622243246306    -0.959972977698     2.233783794778     1.007825032230

  Running in c1 symmetry.

  Rotational constants: A =      0.01525  B =      0.01209  C =      0.00855 [cm^-1]
  Rotational constants: A =    457.05584  B =    362.54308  C =    256.32589 [MHz]
  Nuclear repulsion = 1713.167656678080448

  Charge       = 0
  Multiplicity = 1
  Electrons    = 148
  Nalpha       = 74
  Nbeta        = 74

  ==> Algorithm <==

  SCF Algorithm Type is DF.
  DIIS enabled.
  MOM disabled.
  Fractional occupation disabled.
  Guess Type is SAD.
  Energy threshold   = 1.00e-08
  Density threshold  = 1.00e-06
  Integral threshold = 1.00e-12

  ==> Primary Basis <==

  Basis Set: DEF2-TZVP
    Blend: DEF2-TZVP
    Number of shells: 288
    Number of basis functions: 722
    Number of Cartesian functions: 822
    Spherical Harmonics?: true
    Max angular momentum: 3

  ==> DFT Potential <==

   => LibXC <=

    Version 7.1.2
    S. Lehtola, C. Steigemann, M. J. T. Oliveira, and M. A. L. Marques,  SoftwareX 7, 1–5 (2018) (10.1016/j.softx.2017.11.002)

   => Composite Functional: B3LYP-D3BJ2B <= 

    B3LYP-d3bj2b Hyb-GGA Exchange-Correlation Functional

    P. J. Stephens, F. J. Devlin, C. F. Chabalowski, and M. J. Frisch,  J. Phys. Chem. 98, 11623 (1994) (10.1021/j100096a001)

    Deriv               =              1
    GGA                 =           TRUE
    Meta                =          FALSE

    Exchange Hybrid     =           TRUE
    MP2 Hybrid          =          FALSE

   => Exchange Functionals <=

    0.0800   Slater exchange
    0.7200         Becke 88

   => Exact (HF) Exchange <=

    0.2000               HF 

   => Correlation Functionals <=

    0.1900   Vosko, Wilk & Nusair (VWN5_RPA)
    0.8100   Lee, Yang & Parr

   => LibXC Density Thresholds  <==

    XC_HYB_GGA_XC_B3LYP:  1.00E-15 

   => Molecular Quadrature <=

    Radial Scheme          =       TREUTLER
    Pruning Scheme         =           NONE
    Nuclear Scheme         =       TREUTLER

    Blocking Scheme        =         OCTREE
    BS radius alpha        =              1
    Pruning alpha          =              1
    Radial Points          =             75
    Spherical Points       =            302
    Total Points           =         754454
    Total Blocks           =           5349
    Max Points             =            256
    Max Functions          =            603
    Weights Tolerance      =       1.00E-15

   => Loading Basis Set <=

    Name: (DEF2-TZVP AUX)
    Role: JKFIT
    Keyword: DF_BASIS_SCF
    atoms 1, 3, 11, 18                                           entry O          line   318 file /Users/hoyoun/micromamba/envs/psi4env/share/psi4/basis/def2-universal-jkfit.gbs 
    atoms 2, 5, 10, 12, 17, 19, 24, 27-28, 30, 32, 34, 36        entry C          line   198 file /Users/hoyoun/micromamba/envs/psi4env/share/psi4/basis/def2-universal-jkfit.gbs 
    atoms 4, 6-7, 9, 13-14, 16, 21-23, 25-26, 29, 31, 33, 35, 37 entry H          line    18 file /Users/hoyoun/micromamba/envs/psi4env/share/psi4/basis/def2-universal-jkfit.gbs 
    atoms 8, 15, 20                                              entry N          line   258 file /Users/hoyoun/micromamba/envs/psi4env/share/psi4/basis/def2-universal-jkfit.gbs 

  ==> Integral Setup <==

  ==> DiskDFJK: Density-Fitted J/K Matrices <==

    J tasked:                  Yes
    K tasked:                  Yes
    wK tasked:                  No
    OpenMP threads:              8
    Integrals threads:           8
    Memory [MiB]:             1931
    Algorithm:                Disk
    Integral Cache:           NONE
    Schwarz Cutoff:          1E-12
    Fitting Condition:       1E-10

   => Auxiliary Basis Set <=

  Basis Set: (DEF2-TZVP AUX)
    Blend: DEF2-UNIVERSAL-JKFIT
    Number of shells: 602
    Number of basis functions: 1820
    Number of Cartesian functions: 2148
    Spherical Harmonics?: true
    Max angular momentum: 4

  Cached 2.6% of DFT collocation blocks in 0.194 [GiB].

  Minimum eigenvalue in the overlap matrix is 6.3986744788E-06.
  Reciprocal condition number of the overlap matrix is 5.8739545271E-07.
    Using symmetric orthogonalization.

  ==> Pre-Iterations <==

  SCF Guess: Superposition of Atomic Densities via on-the-fly atomic UHF (no occupation information).

   -------------------------
    Irrep   Nso     Nmo    
   -------------------------
     A        722     722 
   -------------------------
    Total     722     722
   -------------------------

  ==> Iterations <==

                           Total Energy        Delta E     RMS |[F,P]|

   @DF-RKS iter SAD:  -970.46586901119747   -9.70466e+02   0.00000e+00 
   @DF-RKS iter   1:  -969.82939527586245    6.36474e-01   2.52509e-03 DIIS/ADIIS
   @DF-RKS iter   2:  -968.62930098385846    1.20009e+00   3.37093e-03 DIIS/ADIIS
   @DF-RKS iter   3:  -971.21714207277057   -2.58784e+00   5.97582e-04 DIIS/ADIIS
   @DF-RKS iter   4:  -971.27218640834633   -5.50443e-02   3.49376e-04 DIIS/ADIIS
   @DF-RKS iter   5:  -971.29541449696774   -2.32281e-02   9.32144e-05 DIIS
   @DF-RKS iter   6:  -971.29711734441571   -1.70285e-03   2.52607e-05 DIIS
   @DF-RKS iter   7:  -971.29723393088727   -1.16586e-04   1.16061e-05 DIIS
   @DF-RKS iter   8:  -971.29726114322023   -2.72123e-05   3.31062e-06 DIIS
   @DF-RKS iter   9:  -971.29726324567889   -2.10246e-06   1.01624e-06 DIIS
   @DF-RKS iter  10:  -971.29726343410937   -1.88430e-07   3.79269e-07 DIIS
   @DF-RKS iter  11:  -971.29726346665075   -3.25414e-08   1.18668e-07 DIIS
   @DF-RKS iter  12:  -971.29726346989275   -3.24201e-09   3.27140e-08 DIIS
  Energy and wave function converged.


  ==> Post-Iterations <==

   Electrons on quadrature grid:
      Ntotal   =  147.9998164235 ; deviation = -1.836e-04 

    Orbital Energies [Eh]
    ---------------------

    Doubly Occupied:                                                      

       1A    -19.187761     2A    -19.130249     3A    -19.102754  
       4A    -19.096880     5A    -14.346817     6A    -14.338610  
       7A    -14.310854     8A    -10.317590     9A    -10.278117  
      10A    -10.272815    11A    -10.225774    12A    -10.221210  
      13A    -10.216382    14A    -10.188063    15A    -10.182966  
      16A    -10.182258    17A    -10.181597    18A    -10.181039  
      19A    -10.179294    20A    -10.176995    21A     -1.124255  
      22A     -1.052210    23A     -1.042189    24A     -1.033049  
      25A     -0.942101    26A     -0.931269    27A     -0.904947  
      28A     -0.864725    29A     -0.787967    30A     -0.773173  
      31A     -0.753806    32A     -0.739083    33A     -0.720159  
      34A     -0.656288    35A     -0.632706    36A     -0.615542  
      37A     -0.597047    38A     -0.584290    39A     -0.581638  
      40A     -0.553393    41A     -0.528969    42A     -0.520537  
      43A     -0.514903    44A     -0.510129    45A     -0.493993  
      46A     -0.490080    47A     -0.477374    48A     -0.475694  
      49A     -0.466682    50A     -0.464240    51A     -0.443231  
      52A     -0.433055    53A     -0.431371    54A     -0.427316  
      55A     -0.422659    56A     -0.419744    57A     -0.408937  
      58A     -0.404675    59A     -0.395398    60A     -0.384212  
      61A     -0.379391    62A     -0.377136    63A     -0.368191  
      64A     -0.347724    65A     -0.345041    66A     -0.340440  
      67A     -0.305482    68A     -0.290585    69A     -0.279032  
      70A     -0.273103    71A     -0.266896    72A     -0.262466  
      73A     -0.254680    74A     -0.247918  

    Virtual:                                                              

      75A     -0.024885    76A     -0.022900    77A     -0.012249  
      78A     -0.008515    79A      0.010174    80A      0.021953  
      81A      0.031533    82A      0.044439    83A      0.054571  
      84A      0.066168    85A      0.068603    86A      0.078632  
      87A      0.087289    88A      0.089504    89A      0.094221  
      90A      0.099120    91A      0.111509    92A      0.118526  
      93A      0.124652    94A      0.125291    95A      0.129201  
      96A      0.135664    97A      0.144134    98A      0.147876  
      99A      0.152007   100A      0.159069   101A      0.162605  
     102A      0.167870   103A      0.180021   104A      0.187560  
     105A      0.193847   106A      0.195904   107A      0.204200  
     108A      0.210494   109A      0.220520   110A      0.222493  
     111A      0.227485   112A      0.233959   113A      0.234807  
     114A      0.238901   115A      0.249863   116A      0.254233  
     117A      0.256712   118A      0.266713   119A      0.273075  
     120A      0.277985   121A      0.282036   122A      0.288346  
     123A      0.293622   124A      0.298968   125A      0.302167  
     126A      0.309048   127A      0.314286   128A      0.320936  
     129A      0.328943   130A      0.337053   131A      0.338792  
     132A      0.343035   133A      0.350688   134A      0.354755  
     135A      0.355147   136A      0.363188   137A      0.365034  
     138A      0.369742   139A      0.371826   140A      0.376899  
     141A      0.386351   142A      0.392673   143A      0.397094  
     144A      0.398571   145A      0.403667   146A      0.405113  
     147A      0.410219   148A      0.413155   149A      0.417469  
     150A      0.423657   151A      0.428853   152A      0.429133  
     153A      0.435917   154A      0.440838   155A      0.441113  
     156A      0.450947   157A      0.454132   158A      0.456724  
     159A      0.462579   160A      0.466720   161A      0.477364  
     162A      0.481525   163A      0.483534   164A      0.492339  
     165A      0.498918   166A      0.503423   167A      0.506331  
     168A      0.510885   169A      0.517565   170A      0.521607  
     171A      0.528949   172A      0.538112   173A      0.545025  
     174A      0.548048   175A      0.551593   176A      0.558761  
     177A      0.566619   178A      0.573502   179A      0.581382  
     180A      0.588415   181A      0.596155   182A      0.600333  
     183A      0.610866   184A      0.622371   185A      0.626538  
     186A      0.627335   187A      0.634182   188A      0.646141  
     189A      0.652158   190A      0.662552   191A      0.669834  
     192A      0.674462   193A      0.685377   194A      0.686312  
     195A      0.692924   196A      0.697907   197A      0.701378  
     198A      0.715177   199A      0.722154   200A      0.733157  
     201A      0.747604   202A      0.753965   203A      0.758271  
     204A      0.760175   205A      0.772061   206A      0.774507  
     207A      0.784789   208A      0.796918   209A      0.803278  
     210A      0.809677   211A      0.818416   212A      0.826409  
     213A      0.835054   214A      0.839798   215A      0.848136  
     216A      0.858849   217A      0.867149   218A      0.878673  
     219A      0.882547   220A      0.887263   221A      0.895723  
     222A      0.908600   223A      0.914185   224A      0.914965  
     225A      0.922444   226A      0.930707   227A      0.944901  
     228A      0.956332   229A      0.966527   230A      0.981245  
     231A      0.984561   232A      0.991749   233A      1.002178  
     234A      1.004323   235A      1.022072   236A      1.030549  
     237A      1.037963   238A      1.039572   239A      1.055842  
     240A      1.063233   241A      1.068177   242A      1.074228  
     243A      1.088717   244A      1.096329   245A      1.111266  
     246A      1.117247   247A      1.127853   248A      1.139425  
     249A      1.140814   250A      1.153126   251A      1.169169  
     252A      1.173170   253A      1.178579   254A      1.194858  
     255A      1.206836   256A      1.211571   257A      1.217679  
     258A      1.231446   259A      1.239279   260A      1.247578  
     261A      1.251064   262A      1.267059   263A      1.272902  
     264A      1.275206   265A      1.283638   266A      1.293913  
     267A      1.302390   268A      1.309439   269A      1.323639  
     270A      1.327436   271A      1.330932   272A      1.341114  
     273A      1.344651   274A      1.380980   275A      1.381837  
     276A      1.394826   277A      1.403839   278A      1.408978  
     279A      1.425589   280A      1.442415   281A      1.451006  
     282A      1.456215   283A      1.462103   284A      1.465907  
     285A      1.472834   286A      1.481826   287A      1.486521  
     288A      1.487866   289A      1.492331   290A      1.497617  
     291A      1.517653   292A      1.529258   293A      1.537147  
     294A      1.540633   295A      1.550517   296A      1.558595  
     297A      1.565828   298A      1.571167   299A      1.580542  
     300A      1.590436   301A      1.591235   302A      1.605162  
     303A      1.609178   304A      1.615931   305A      1.627205  
     306A      1.629767   307A      1.638377   308A      1.643761  
     309A      1.660292   310A      1.668580   311A      1.676973  
     312A      1.680763   313A      1.687915   314A      1.691027  
     315A      1.706366   316A      1.711846   317A      1.718281  
     318A      1.728409   319A      1.738053   320A      1.744798  
     321A      1.754096   322A      1.758233   323A      1.770718  
     324A      1.784183   325A      1.797975   326A      1.810559  
     327A      1.813861   328A      1.826134   329A      1.831718  
     330A      1.834845   331A      1.843707   332A      1.857449  
     333A      1.859406   334A      1.875178   335A      1.880777  
     336A      1.894545   337A      1.897132   338A      1.910595  
     339A      1.919436   340A      1.930352   341A      1.943795  
     342A      1.952133   343A      1.961076   344A      1.965426  
     345A      1.977461   346A      2.002958   347A      2.004813  
     348A      2.011804   349A      2.024367   350A      2.039015  
     351A      2.040865   352A      2.050638   353A      2.055493  
     354A      2.059303   355A      2.062588   356A      2.076285  
     357A      2.089446   358A      2.102860   359A      2.113418  
     360A      2.120511   361A      2.123541   362A      2.133454  
     363A      2.139282   364A      2.153137   365A      2.159878  
     366A      2.166986   367A      2.178996   368A      2.182739  
     369A      2.202665   370A      2.204982   371A      2.217451  
     372A      2.222220   373A      2.240947   374A      2.250087  
     375A      2.258818   376A      2.269879   377A      2.273935  
     378A      2.288022   379A      2.291807   380A      2.295221  
     381A      2.296740   382A      2.325113   383A      2.333266  
     384A      2.341987   385A      2.355467   386A      2.369360  
     387A      2.383799   388A      2.392078   389A      2.404388  
     390A      2.414841   391A      2.433478   392A      2.449809  
     393A      2.452535   394A      2.469859   395A      2.480227  
     396A      2.483437   397A      2.503944   398A      2.512927  
     399A      2.526513   400A      2.534270   401A      2.541807  
     402A      2.548331   403A      2.551563   404A      2.559626  
     405A      2.561213   406A      2.577335   407A      2.587585  
     408A      2.599187   409A      2.608308   410A      2.618350  
     411A      2.620641   412A      2.631656   413A      2.640704  
     414A      2.652764   415A      2.656386   416A      2.660696  
     417A      2.665688   418A      2.670680   419A      2.681101  
     420A      2.689101   421A      2.692622   422A      2.700411  
     423A      2.709988   424A      2.714047   425A      2.730698  
     426A      2.741018   427A      2.747549   428A      2.750371  
     429A      2.760493   430A      2.766346   431A      2.783892  
     432A      2.788071   433A      2.791627   434A      2.800625  
     435A      2.815993   436A      2.821567   437A      2.829249  
     438A      2.832734   439A      2.854298   440A      2.857281  
     441A      2.861320   442A      2.868790   443A      2.879507  
     444A      2.885124   445A      2.887666   446A      2.896269  
     447A      2.909924   448A      2.911761   449A      2.924340  
     450A      2.937505   451A      2.950005   452A      2.964130  
     453A      2.969296   454A      2.976152   455A      2.994568  
     456A      3.003842   457A      3.011021   458A      3.015124  
     459A      3.023455   460A      3.043562   461A      3.046318  
     462A      3.061448   463A      3.068513   464A      3.083076  
     465A      3.084934   466A      3.090100   467A      3.096318  
     468A      3.104215   469A      3.108302   470A      3.123388  
     471A      3.130474   472A      3.136969   473A      3.144839  
     474A      3.150391   475A      3.151953   476A      3.155732  
     477A      3.163484   478A      3.169503   479A      3.177482  
     480A      3.181898   481A      3.189221   482A      3.198711  
     483A      3.202998   484A      3.208943   485A      3.219363  
     486A      3.228281   487A      3.234750   488A      3.237527  
     489A      3.246722   490A      3.260687   491A      3.268309  
     492A      3.276477   493A      3.282580   494A      3.296954  
     495A      3.305074   496A      3.308121   497A      3.316750  
     498A      3.319117   499A      3.326475   500A      3.337957  
     501A      3.342936   502A      3.344453   503A      3.348170  
     504A      3.367962   505A      3.372826   506A      3.376894  
     507A      3.381715   508A      3.392781   509A      3.402223  
     510A      3.405662   511A      3.418322   512A      3.423742  
     513A      3.429463   514A      3.434809   515A      3.441425  
     516A      3.454903   517A      3.464246   518A      3.467892  
     519A      3.471701   520A      3.482805   521A      3.498750  
     522A      3.508149   523A      3.514588   524A      3.518189  
     525A      3.526097   526A      3.532417   527A      3.544342  
     528A      3.558369   529A      3.563575   530A      3.567546  
     531A      3.577579   532A      3.586507   533A      3.600806  
     534A      3.623392   535A      3.636360   536A      3.639707  
     537A      3.662600   538A      3.677109   539A      3.684614  
     540A      3.695330   541A      3.710519   542A      3.725968  
     543A      3.756761   544A      3.765094   545A      3.766656  
     546A      3.770086   547A      3.792085   548A      3.810718  
     549A      3.816537   550A      3.835674   551A      3.846402  
     552A      3.861576   553A      3.872202   554A      3.887445  
     555A      3.888084   556A      3.911674   557A      3.924883  
     558A      3.931887   559A      3.943912   560A      3.946779  
     561A      3.953443   562A      3.964274   563A      3.983347  
     564A      4.023616   565A      4.033135   566A      4.045348  
     567A      4.048111   568A      4.065077   569A      4.080579  
     570A      4.091637   571A      4.106241   572A      4.138673  
     573A      4.143010   574A      4.158982   575A      4.162748  
     576A      4.191445   577A      4.202805   578A      4.210947  
     579A      4.226237   580A      4.232757   581A      4.241431  
     582A      4.253602   583A      4.272523   584A      4.282301  
     585A      4.303806   586A      4.316222   587A      4.326494  
     588A      4.333606   589A      4.342798   590A      4.367622  
     591A      4.383319   592A      4.392769   593A      4.428873  
     594A      4.445018   595A      4.464185   596A      4.476573  
     597A      4.492057   598A      4.513876   599A      4.529158  
     600A      4.556003   601A      4.568625   602A      4.598307  
     603A      4.627779   604A      4.676358   605A      4.697628  
     606A      4.700766   607A      4.722290   608A      4.729063  
     609A      4.745618   610A      4.756206   611A      4.766590  
     612A      4.773762   613A      4.831838   614A      4.842153  
     615A      4.859429   616A      4.870116   617A      4.883858  
     618A      4.899566   619A      4.909136   620A      4.949208  
     621A      4.954165   622A      4.970846   623A      4.995894  
     624A      5.023793   625A      5.026901   626A      5.056595  
     627A      5.103821   628A      5.124955   629A      5.127715  
     630A      5.137910   631A      5.142303   632A      5.164775  
     633A      5.180418   634A      5.183868   635A      5.203162  
     636A      5.207716   637A      5.214657   638A      5.219054  
     639A      5.228100   640A      5.243811   641A      5.252421  
     642A      5.262942   643A      5.281866   644A      5.306917  
     645A      5.319769   646A      5.341325   647A      5.359410  
     648A      5.366287   649A      5.380603   650A      5.405565  
     651A      5.419651   652A      5.426509   653A      5.437036  
     654A      5.462465   655A      5.484187   656A      5.493658  
     657A      5.523435   658A      5.562212   659A      5.568193  
     660A      5.611050   661A      5.631602   662A      5.665628  
     663A      5.679161   664A      5.701702   665A      5.764599  
     666A      5.805584   667A      5.823260   668A      5.873132  
     669A      5.889120   670A      5.897011   671A      5.930670  
     672A      5.966630   673A      6.149881   674A      6.171531  
     675A      6.183622   676A      6.209456   677A      6.322564  
     678A      6.341490   679A      6.344741   680A      6.388025  
     681A      6.437037   682A      6.455210   683A      6.482571  
     684A      6.508098   685A      6.559783   686A      6.597873  
     687A      6.668244   688A      6.705229   689A      6.715927  
     690A      6.732989   691A      6.774565   692A      6.847091  
     693A      6.865651   694A      6.899692   695A      6.905093  
     696A      7.075266   697A      7.085447   698A      7.100180  
     699A      7.124428   700A      7.140796   701A      7.177520  
     702A      7.333027   703A     22.235945   704A     22.540654  
     705A     22.557725   706A     22.584133   707A     22.623278  
     708A     22.637074   709A     22.700140   710A     22.753763  
     711A     22.819889   712A     23.220679   713A     23.276283  
     714A     23.318595   715A     23.387931   716A     32.107712  
     717A     32.437552   718A     32.544169   719A     43.899909  
     720A     43.926336   721A     44.004041   722A     44.031692  

    Final Occupation by Irrep:
              A 
    DOCC [    74 ]
    NA   [    74 ]
    NB   [    74 ]

  @DF-RKS Final Energy:  -971.29726346989275

   => Energetics <=

    Nuclear Repulsion Energy =           1713.1676566780804478
    One-Electron Energy =               -4728.5173010409216658
    Two-Electron Energy =                2151.1919573883869816
    DFT Exchange-Correlation Energy =    -107.0538883869331954
    Empirical Dispersion Energy =          -0.0856881085055665
    VV10 Nonlocal Energy =                  0.0000000000000000
    Total Energy =                       -971.2972634698927550

Computation Completed


Properties will be evaluated at   0.000000,   0.000000,   0.000000 [a0]

Properties computed using the SCF density matrix


 Multipole Moments:

 ------------------------------------------------------------------------------------
     Multipole            Electronic (a.u.)      Nuclear  (a.u.)        Total (a.u.)
 ------------------------------------------------------------------------------------

 L = 1.  Multiply by 2.5417464519 to convert [e a0] to [Debye]
 Dipole X            :        -39.5346855           39.1267796           -0.4079058
 Dipole Y            :        -52.9306467           51.7255838           -1.2050630
 Dipole Z            :          0.5007574           -0.8862816           -0.3855242
 Magnitude           :                                                    1.3293580

 ------------------------------------------------------------------------------------

*** tstop() called on choehoyun-ui-MacBookAir.local at Sun Aug  9 15:48:57 2026
Module time:
	user time   =     804.61 seconds =      13.41 minutes
	system time =      15.80 seconds =       0.26 minutes
	total time  =        122 seconds =       2.03 minutes
Total time:
	user time   =     804.61 seconds =      13.41 minutes
	system time =      15.80 seconds =       0.26 minutes
	total time  =        122 seconds =       2.03 minutes

    Psi4 stopped on: Sunday, 09 August 2026 03:48PM
    Psi4 wall time for execution: 0:02:01.64

*** Psi4 exiting successfully. Buy a developer a beer!
