
    -----------------------------------------------------------------------
          Psi4: An Open-Source Ab Initio Electronic Structure Package
                               Psi4 1.11 release

                         Git: Rev {} zzzzzzz 


    D. G. A. Smith, L. A. Burns, A. C. Simmonett, R. M. Parrish,
    M. C. Schieber, R. Galvelis, P. Kraus, H. Kruse, R. Di Remigio,
    A. Alenaizan, A. M. James, S. Lehtola, J. P. Misiewicz, M. Scheurer,
    R. A. Shaw, J. B. Schriber, Y. Xie, Z. L. Glick, D. A. Sirianni,
    J. S. O'Brien, J. M. Waldrop, A. Kumar, E. G. Hohenstein,
    B. P. Pritchard, B. R. Brooks, H. F. Schaefer III, A. Yu. Sokolov,
    K. Patkowski, A. E. DePrince III, U. Bozkaya, R. A. King,
    F. A. Evangelista, J. M. Turney, T. D. Crawford, C. D. Sherrill,
    J. Chem. Phys. 152(18) 184108 (2020). https://doi.org/10.1063/5.0006002

                            Additional Code Authors
    E. T. Seidl, C. L. Janssen, E. F. Valeev, M. L. Leininger,
    J. F. Gonthier, R. M. Richard, H. R. McAlexander, M. Saitow, X. Wang,
    P. Verma, M. H. Lechner, A. Jiang, S. Behnle, A. G. Heide,
    M. F. Herbst, D. L. Poole, T. Győri, E. C. Mitchell, J. P. Pederson,
    and A. M. Wallace

             Previous Authors, Complete List of Code Contributors,
                       and Citations for Specific Modules
    https://github.com/psi4/psi4/blob/master/codemeta.json
    https://github.com/psi4/psi4/graphs/contributors
    https://psicode.org/psi4manual/master/introduction.html#citing-psifour

    -----------------------------------------------------------------------


    Psi4 started on: Sunday, 09 August 2026 01:11AM

    Process ID: 41268
    Host:       choehoyun-ui-MacBookAir.local
    PSIDATADIR: /Users/hoyoun/micromamba/envs/psi4env/share/psi4
    Memory:     500.0 MiB
    Threads:    1
    Addons:     a̶d̶c̶c̶, a̶m̶b̶i̶t̶, b̶s̶e̶, c̶c̶t̶3̶, c̶f̶o̶u̶r̶, c̶h̶e̶m̶p̶s̶2̶, c̶p̶p̶e̶, d̶d̶x̶, dftd3,
                d̶f̶t̶d̶4̶, dkh, ecpint, einsums, f̶o̶r̶t̶e̶, gauxc, g̶c̶p̶, g̶d̶m̶a̶,
                g̶e̶o̶m̶e̶t̶r̶i̶c̶, g̶p̶u̶_̶d̶f̶c̶c̶, i̶n̶t̶e̶g̶r̶a̶t̶o̶r̶x̶x̶, i̶p̶i̶,
                l̶i̶b̶e̶f̶p̶, m̶d̶i̶, m̶p̶2̶d̶, m̶r̶c̶c̶, ooo, o̶p̶e̶n̶f̶e̶r̶m̶i̶o̶n̶p̶s̶i̶4̶,
                pcmsolver, p̶s̶i̶4̶f̶o̶c̶k̶c̶i̶, p̶s̶i̶x̶a̶s̶, p̶y̶e̶i̶n̶s̶u̶m̶s̶, r̶e̶s̶p̶,
                s̶i̶m̶i̶n̶t̶, s̶n̶s̶m̶p̶2̶, v̶2̶r̶d̶m̶_̶c̶a̶s̶s̶c̶f̶

  ==> Input File <==

--------------------------------------------------------------------------
memory 6 GB
molecule mol {
0 1
O -1.58681181839594 0.13464402288821 -0.26794829623948
C -0.40939771544224 0.04430727248693 0.53575901815431
C 0.87327780736397 0.09158599439564 -0.28189170003874
H -1.59216127649993 -0.60746754902878 -0.88313989739133
H -0.45964275730681 0.89760760076996 1.21397314555339
H -0.43189566231146 -0.86408400978951 1.15240131211466
H 0.91394341938652 1.00150138897960 -0.88388758595931
H 1.74978319540961 0.06906035325506 0.37154813266257
H 0.94290480779626 -0.76715507395712 -0.95681412885608
units angstrom
no_reorient
no_com
}
set basis def2-TZVP
set scf_type df
set freeze_core true
energy('b3lyp-d3bj')
--------------------------------------------------------------------------

  Memory set to   5.588 GiB by Python driver.

Scratch directory: /tmp/
   => Libint2 <=

    Primary   basis highest AM E, G, H:  7, 6, 3
    Auxiliary basis highest AM E, G, H:  7, 7, 4
    Onebody   basis highest AM E, G, H:  -, -, -
    Solid Harmonics ordering:            Gaussian

*** tstart() called on choehoyun-ui-MacBookAir.local
*** at Sun Aug  9 01:11:24 2026

   => Loading Basis Set <=

    Name: DEF2-TZVP
    Role: ORBITAL
    Keyword: BASIS
    atoms 1   entry O          line   189 file /Users/hoyoun/micromamba/envs/psi4env/share/psi4/basis/def2-tzvp.gbs 
    atoms 2-3 entry C          line   123 file /Users/hoyoun/micromamba/envs/psi4env/share/psi4/basis/def2-tzvp.gbs 
    atoms 4-9 entry H          line    15 file /Users/hoyoun/micromamba/envs/psi4env/share/psi4/basis/def2-tzvp.gbs 

   => B3LYP-D3(BJ): Empirical Dispersion <=

    Grimme's -D3 (BJ-damping) Dispersion Correction
    Grimme S.; Ehrlich S.; Goerigk L. (2011), J. Comput. Chem., 32: 1456

        s6 =       1.000000
        s8 =       1.988900
        a1 =       0.398100
        a2 =       4.421100


         ---------------------------------------------------------
                                   SCF
               by Justin Turney, Rob Parrish, Andy Simmonett
                          and Daniel G. A. Smith
                              RKS Reference
                        1 Threads,   5722 MiB Core
         ---------------------------------------------------------

  ==> Geometry <==

    Molecular point group: c1
    Full point group: C1

    Geometry (in Angstrom), charge = 0, multiplicity = 1:

       Center              X                  Y                   Z               Mass       
    ------------   -----------------  -----------------  -----------------  -----------------
         O           -1.586811818396     0.134644022888    -0.267948296239    15.994914619570
         C           -0.409397715442     0.044307272487     0.535759018154    12.000000000000
         C            0.873277807364     0.091585994396    -0.281891700039    12.000000000000
         H           -1.592161276500    -0.607467549029    -0.883139897391     1.007825032230
         H           -0.459642757307     0.897607600770     1.213973145553     1.007825032230
         H           -0.431895662311    -0.864084009790     1.152401312115     1.007825032230
         H            0.913943419387     1.001501388980    -0.883887585959     1.007825032230
         H            1.749783195410     0.069060353255     0.371548132663     1.007825032230
         H            0.942904807796    -0.767155073957    -0.956814128856     1.007825032230

  Running in c1 symmetry.

  Rotational constants: A =      1.12966  B =      0.26682  C =      0.23993 [cm^-1]
  Rotational constants: A =  33866.48516  B =   7998.98958  C =   7193.02697 [MHz]
  Nuclear repulsion =   81.484483579462548

  Charge       = 0
  Multiplicity = 1
  Electrons    = 26
  Nalpha       = 13
  Nbeta        = 13

  ==> Algorithm <==

  SCF Algorithm Type is DF.
  DIIS enabled.
  MOM disabled.
  Fractional occupation disabled.
  Guess Type is SAD.
  Energy threshold   = 1.00e-06
  Density threshold  = 1.00e-06
  Integral threshold = 1.00e-12

  ==> Primary Basis <==

  Basis Set: DEF2-TZVP
    Blend: DEF2-TZVP
    Number of shells: 57
    Number of basis functions: 129
    Number of Cartesian functions: 144
    Spherical Harmonics?: true
    Max angular momentum: 3

  ==> DFT Potential <==

   => LibXC <=

    Version 7.1.2
    S. Lehtola, C. Steigemann, M. J. T. Oliveira, and M. A. L. Marques,  SoftwareX 7, 1–5 (2018) (10.1016/j.softx.2017.11.002)

   => Composite Functional: B3LYP-D3BJ2B <= 

    B3LYP-d3bj2b Hyb-GGA Exchange-Correlation Functional

    P. J. Stephens, F. J. Devlin, C. F. Chabalowski, and M. J. Frisch,  J. Phys. Chem. 98, 11623 (1994) (10.1021/j100096a001)

    Deriv               =              1
    GGA                 =           TRUE
    Meta                =          FALSE

    Exchange Hybrid     =           TRUE
    MP2 Hybrid          =          FALSE

   => Exchange Functionals <=

    0.0800   Slater exchange
    0.7200         Becke 88

   => Exact (HF) Exchange <=

    0.2000               HF 

   => Correlation Functionals <=

    0.1900   Vosko, Wilk & Nusair (VWN5_RPA)
    0.8100   Lee, Yang & Parr

   => LibXC Density Thresholds  <==

    XC_HYB_GGA_XC_B3LYP:  1.00E-15 

   => Molecular Quadrature <=

    Radial Scheme          =       TREUTLER
    Pruning Scheme         =           NONE
    Nuclear Scheme         =       TREUTLER

    Blocking Scheme        =         OCTREE
    BS radius alpha        =              1
    Pruning alpha          =              1
    Radial Points          =             75
    Spherical Points       =            302
    Total Points           =         194561
    Total Blocks           =           1479
    Max Points             =            256
    Max Functions          =            128
    Weights Tolerance      =       1.00E-15

   => Loading Basis Set <=

    Name: (DEF2-TZVP AUX)
    Role: JKFIT
    Keyword: DF_BASIS_SCF
    atoms 1   entry O          line   318 file /Users/hoyoun/micromamba/envs/psi4env/share/psi4/basis/def2-universal-jkfit.gbs 
    atoms 2-3 entry C          line   198 file /Users/hoyoun/micromamba/envs/psi4env/share/psi4/basis/def2-universal-jkfit.gbs 
    atoms 4-9 entry H          line    18 file /Users/hoyoun/micromamba/envs/psi4env/share/psi4/basis/def2-universal-jkfit.gbs 

  ==> Integral Setup <==

  DFHelper Memory: AOs need 0.046 GiB; user supplied 3.559 GiB. 
  SCF_SUBTYPE=INCORE selected. In-core MEM_DF algorithm will be used.
  Using in-core AOs.

  ==> MemDFJK: Density-Fitted J/K Matrices <==

    J tasked:                   Yes
    K tasked:                   Yes
    wK tasked:                   No
    OpenMP threads:               1
    Memory [MiB]:              3644
    Algorithm:                 Core
    Schwarz Cutoff:           1E-12
    Mask sparsity (%):       0.3485
    Fitting Condition:        1E-10

   => Auxiliary Basis Set <=

  Basis Set: (DEF2-TZVP AUX)
    Blend: DEF2-UNIVERSAL-JKFIT
    Number of shells: 111
    Number of basis functions: 335
    Number of Cartesian functions: 391
    Spherical Harmonics?: true
    Max angular momentum: 4

  Cached 100.0% of DFT collocation blocks in 0.632 [GiB].

  Minimum eigenvalue in the overlap matrix is 5.4423832216E-04.
  Reciprocal condition number of the overlap matrix is 6.7019816307E-05.
    Using symmetric orthogonalization.

  ==> Pre-Iterations <==

  SCF Guess: Superposition of Atomic Densities via on-the-fly atomic UHF (no occupation information).

   -------------------------
    Irrep   Nso     Nmo    
   -------------------------
     A        129     129 
   -------------------------
    Total     129     129
   -------------------------

  ==> Iterations <==

                           Total Energy        Delta E     RMS |[F,P]|

   @DF-RKS iter SAD:  -154.51197403990301   -1.54512e+02   0.00000e+00 
   @DF-RKS iter   1:  -154.73499506373852   -2.23021e-01   7.07328e-03 ADIIS/DIIS
   @DF-RKS iter   2:  -154.42235282727248    3.12642e-01   9.44060e-03 ADIIS/DIIS
   @DF-RKS iter   3:  -155.10919181281710   -6.86839e-01   1.09440e-03 ADIIS/DIIS
   @DF-RKS iter   4:  -155.11418214775009   -4.99033e-03   6.22960e-04 ADIIS/DIIS
   @DF-RKS iter   5:  -155.11666985658985   -2.48771e-03   7.92173e-05 DIIS
   @DF-RKS iter   6:  -155.11670904455028   -3.91880e-05   2.77062e-05 DIIS
   @DF-RKS iter   7:  -155.11671424610671   -5.20156e-06   6.02725e-06 DIIS
   @DF-RKS iter   8:  -155.11671452894956   -2.82843e-07   7.56767e-07 DIIS
  Energy and wave function converged.


  ==> Post-Iterations <==

   Electrons on quadrature grid:
      Ntotal   =   26.0000090479 ; deviation = 9.048e-06 

    Orbital Energies [Eh]
    ---------------------

    Doubly Occupied:                                                      

       1A    -19.123636     2A    -10.218031     3A    -10.166276  
       4A     -1.019106     5A     -0.751287     6A     -0.628132  
       7A     -0.505507     8A     -0.456835     9A     -0.436312  
      10A     -0.386831    11A     -0.375847    12A     -0.331614  
      13A     -0.279238  

    Virtual:                                                              

      14A      0.024678    15A      0.062292    16A      0.079765  
      17A      0.098482    18A      0.109907    19A      0.126733  
      20A      0.142166    21A      0.183656    22A      0.196217  
      23A      0.227697    24A      0.268672    25A      0.280940  
      26A      0.304962    27A      0.369624    28A      0.386117  
      29A      0.401669    30A      0.415660    31A      0.437912  
      32A      0.445026    33A      0.486184    34A      0.496918  
      35A      0.525656    36A      0.532724    37A      0.566391  
      38A      0.586189    39A      0.694357    40A      0.749591  
      41A      0.784318    42A      0.822791    43A      0.852890  
      44A      0.918366    45A      1.021056    46A      1.048753  
      47A      1.061988    48A      1.090476    49A      1.129531  
      50A      1.329006    51A      1.439416    52A      1.458369  
      53A      1.484136    54A      1.499426    55A      1.524081  
      56A      1.532556    57A      1.553930    58A      1.588945  
      59A      1.639839    60A      1.720910    61A      1.773493  
      62A      1.788676    63A      1.820120    64A      1.859565  
      65A      1.892617    66A      1.948572    67A      2.019353  
      68A      2.057317    69A      2.155278    70A      2.225253  
      71A      2.236560    72A      2.298648    73A      2.309004  
      74A      2.316471    75A      2.347767    76A      2.407087  
      77A      2.442621    78A      2.453460    79A      2.543359  
      80A      2.552259    81A      2.601478    82A      2.631584  
      83A      2.680383    84A      2.733411    85A      2.780430  
      86A      2.826547    87A      2.884222    88A      2.966716  
      89A      3.025210    90A      3.050627    91A      3.053241  
      92A      3.100624    93A      3.147366    94A      3.212144  
      95A      3.240070    96A      3.315828    97A      3.339554  
      98A      3.347742    99A      3.447743   100A      3.494674  
     101A      3.525121   102A      3.747831   103A      3.763061  
     104A      3.857462   105A      3.893023   106A      3.896690  
     107A      3.998354   108A      4.202747   109A      4.261904  
     110A      4.359389   111A      4.405036   112A      4.497177  
     113A      4.585598   114A      4.718589   115A      5.249295  
     116A      5.330546   117A      5.455802   118A      5.720914  
     119A      5.745953   120A      5.886795   121A      6.264469  
     122A      6.432765   123A      6.662143   124A      6.746860  
     125A      6.952356   126A      7.121642   127A     22.256873  
     128A     22.365606   129A     43.680381  

    Final Occupation by Irrep:
              A 
    DOCC [    13 ]
    NA   [    13 ]
    NB   [    13 ]

  @DF-RKS Final Energy:  -155.11671452894956

   => Energetics <=

    Nuclear Repulsion Energy =             81.4844835794625482
    One-Electron Energy =                -371.2050808153422850
    Two-Electron Energy =                 152.1800717732986641
    DFT Exchange-Correlation Energy =     -17.5690673533689008
    Empirical Dispersion Energy =          -0.0071217129996022
    VV10 Nonlocal Energy =                  0.0000000000000000
    Total Energy =                       -155.1167145289495579

Computation Completed


Properties will be evaluated at   0.000000,   0.000000,   0.000000 [a0]

Properties computed using the SCF density matrix


 Multipole Moments:

 ------------------------------------------------------------------------------------
     Multipole            Electronic (a.u.)      Nuclear  (a.u.)        Total (a.u.)
 ------------------------------------------------------------------------------------

 L = 1.  Multiply by 2.5417464519 to convert [e a0] to [Debye]
 Dipole X            :         17.1011098          -16.6074466            0.4936632
 Dipole Y            :         -3.5172873            3.0650876           -0.4521998
 Dipole Z            :          1.0880450           -1.1457438           -0.0576988
 Magnitude           :                                                    0.6719503

 ------------------------------------------------------------------------------------

*** tstop() called on choehoyun-ui-MacBookAir.local at Sun Aug  9 01:11:31 2026
Module time:
	user time   =       5.72 seconds =       0.10 minutes
	system time =       0.43 seconds =       0.01 minutes
	total time  =          7 seconds =       0.12 minutes
Total time:
	user time   =       5.72 seconds =       0.10 minutes
	system time =       0.43 seconds =       0.01 minutes
	total time  =          7 seconds =       0.12 minutes

    Psi4 stopped on: Sunday, 09 August 2026 01:11AM
    Psi4 wall time for execution: 0:00:07.05

*** Psi4 exiting successfully. Buy a developer a beer!
