
    -----------------------------------------------------------------------
          Psi4: An Open-Source Ab Initio Electronic Structure Package
                               Psi4 1.11 release

                         Git: Rev {} zzzzzzz 


    D. G. A. Smith, L. A. Burns, A. C. Simmonett, R. M. Parrish,
    M. C. Schieber, R. Galvelis, P. Kraus, H. Kruse, R. Di Remigio,
    A. Alenaizan, A. M. James, S. Lehtola, J. P. Misiewicz, M. Scheurer,
    R. A. Shaw, J. B. Schriber, Y. Xie, Z. L. Glick, D. A. Sirianni,
    J. S. O'Brien, J. M. Waldrop, A. Kumar, E. G. Hohenstein,
    B. P. Pritchard, B. R. Brooks, H. F. Schaefer III, A. Yu. Sokolov,
    K. Patkowski, A. E. DePrince III, U. Bozkaya, R. A. King,
    F. A. Evangelista, J. M. Turney, T. D. Crawford, C. D. Sherrill,
    J. Chem. Phys. 152(18) 184108 (2020). https://doi.org/10.1063/5.0006002

                            Additional Code Authors
    E. T. Seidl, C. L. Janssen, E. F. Valeev, M. L. Leininger,
    J. F. Gonthier, R. M. Richard, H. R. McAlexander, M. Saitow, X. Wang,
    P. Verma, M. H. Lechner, A. Jiang, S. Behnle, A. G. Heide,
    M. F. Herbst, D. L. Poole, T. Győri, E. C. Mitchell, J. P. Pederson,
    and A. M. Wallace

             Previous Authors, Complete List of Code Contributors,
                       and Citations for Specific Modules
    https://github.com/psi4/psi4/blob/master/codemeta.json
    https://github.com/psi4/psi4/graphs/contributors
    https://psicode.org/psi4manual/master/introduction.html#citing-psifour

    -----------------------------------------------------------------------


    Psi4 started on: Sunday, 09 August 2026 02:28AM

    Process ID: 50176
    Host:       choehoyun-ui-MacBookAir.local
    PSIDATADIR: /Users/hoyoun/micromamba/envs/psi4env/share/psi4
    Memory:     500.0 MiB
    Threads:    8
    Addons:     a̶d̶c̶c̶, a̶m̶b̶i̶t̶, b̶s̶e̶, c̶c̶t̶3̶, c̶f̶o̶u̶r̶, c̶h̶e̶m̶p̶s̶2̶, c̶p̶p̶e̶, d̶d̶x̶, dftd3,
                d̶f̶t̶d̶4̶, dkh, ecpint, einsums, f̶o̶r̶t̶e̶, gauxc, g̶c̶p̶, g̶d̶m̶a̶,
                g̶e̶o̶m̶e̶t̶r̶i̶c̶, g̶p̶u̶_̶d̶f̶c̶c̶, i̶n̶t̶e̶g̶r̶a̶t̶o̶r̶x̶x̶, i̶p̶i̶,
                l̶i̶b̶e̶f̶p̶, m̶d̶i̶, m̶p̶2̶d̶, m̶r̶c̶c̶, ooo, o̶p̶e̶n̶f̶e̶r̶m̶i̶o̶n̶p̶s̶i̶4̶,
                pcmsolver, p̶s̶i̶4̶f̶o̶c̶k̶c̶i̶, p̶s̶i̶x̶a̶s̶, p̶y̶e̶i̶n̶s̶u̶m̶s̶, r̶e̶s̶p̶,
                s̶i̶m̶i̶n̶t̶, s̶n̶s̶m̶p̶2̶, v̶2̶r̶d̶m̶_̶c̶a̶s̶s̶c̶f̶

  ==> Input File <==

--------------------------------------------------------------------------
memory 3 GB
molecule mol {
0 1
N 1.83378225294210 0.42400676860583 0.16099648947551
H 2.14638950056985 1.30386078360433 0.54200343807162
C 0.40688544272987 0.25232811719574 0.05796858396842
H 0.18653367144392 -0.22153122538749 -0.89874701453778
C -0.09742370892523 -0.64404832122205 1.19909731613927
C -0.21191310762471 1.64370704558962 0.12424595071543
H 0.12311312474020 -0.14811308679452 2.14504181240706
H 0.48056290891429 -1.56662661354536 1.15364106586153
C -1.59531129987408 -0.97489841277463 1.14620030320649
O 0.35726270799847 2.55491287950139 0.72441841190507
H -1.83868225221200 -1.66401163264682 1.95133823282501
H -2.19171409475679 -0.07260408523839 1.25540762924397
C -1.93940374059878 -1.60584154643254 -0.17029147040845
O -1.79066760298447 -2.94041449255585 -0.15109617589053
O -2.27080511551737 -1.00047403727382 -1.17344882453620
C 2.68721530830508 -0.54332882215571 -0.25551756211008
C 4.15460521191553 -0.22319434783387 -0.11064162572557
O 2.28961690853713 -1.60773137903558 -0.72143533782678
H 4.61663463142451 -0.98675555423223 0.51044256199993
H 4.33748044113563 0.75607631022132 0.32426311988549
H 4.61726932457368 -0.27350566061614 -1.09342573956748
N -1.40600433683877 1.76043197082998 -0.49027069327254
C -2.16282975325904 2.99413379073547 -0.47121175837702
H -1.79212022772449 0.93760633581996 -0.93691819087548
H -2.30723874631947 3.37509436227891 -1.48027239033127
H -3.13643099867427 2.84538143809263 -0.00746382320038
H -1.59753424868995 3.71888520664960 0.10584117313988
H -1.95238119271561 -3.24355177016797 -1.05808547176648
units angstrom
no_reorient
no_com
}
set basis def2-TZVP
set scf_type df
set freeze_core true
set e_convergence 8
energy('b3lyp-d3bj')
--------------------------------------------------------------------------

  Memory set to   2.794 GiB by Python driver.

Scratch directory: /Users/hoyoun/Documents/Yonsei_AX_Camp/(진짜_이게_최종)/calibration/dft_work/_scratch/GLU_xbi/
   => Libint2 <=

    Primary   basis highest AM E, G, H:  7, 6, 3
    Auxiliary basis highest AM E, G, H:  7, 7, 4
    Onebody   basis highest AM E, G, H:  -, -, -
    Solid Harmonics ordering:            Gaussian

*** tstart() called on choehoyun-ui-MacBookAir.local
*** at Sun Aug  9 02:28:24 2026

   => Loading Basis Set <=

    Name: DEF2-TZVP
    Role: ORBITAL
    Keyword: BASIS
    atoms 1, 22                          entry N          line   156 file /Users/hoyoun/micromamba/envs/psi4env/share/psi4/basis/def2-tzvp.gbs 
    atoms 2, 4, 7-8, 11-12, 19-21, 24-28 entry H          line    15 file /Users/hoyoun/micromamba/envs/psi4env/share/psi4/basis/def2-tzvp.gbs 
    atoms 3, 5-6, 9, 13, 16-17, 23       entry C          line   123 file /Users/hoyoun/micromamba/envs/psi4env/share/psi4/basis/def2-tzvp.gbs 
    atoms 10, 14-15, 18                  entry O          line   189 file /Users/hoyoun/micromamba/envs/psi4env/share/psi4/basis/def2-tzvp.gbs 

   => B3LYP-D3(BJ): Empirical Dispersion <=

    Grimme's -D3 (BJ-damping) Dispersion Correction
    Grimme S.; Ehrlich S.; Goerigk L. (2011), J. Comput. Chem., 32: 1456

        s6 =       1.000000
        s8 =       1.988900
        a1 =       0.398100
        a2 =       4.421100


         ---------------------------------------------------------
                                   SCF
               by Justin Turney, Rob Parrish, Andy Simmonett
                          and Daniel G. A. Smith
                              RKS Reference
                        8 Threads,   2861 MiB Core
         ---------------------------------------------------------

  ==> Geometry <==

    Molecular point group: c1
    Full point group: C1

    Geometry (in Angstrom), charge = 0, multiplicity = 1:

       Center              X                  Y                   Z               Mass       
    ------------   -----------------  -----------------  -----------------  -----------------
         N            1.833782252942     0.424006768606     0.160996489476    14.003074004430
         H            2.146389500570     1.303860783604     0.542003438072     1.007825032230
         C            0.406885442730     0.252328117196     0.057968583968    12.000000000000
         H            0.186533671444    -0.221531225387    -0.898747014538     1.007825032230
         C           -0.097423708925    -0.644048321222     1.199097316139    12.000000000000
         C           -0.211913107625     1.643707045590     0.124245950715    12.000000000000
         H            0.123113124740    -0.148113086795     2.145041812407     1.007825032230
         H            0.480562908914    -1.566626613545     1.153641065862     1.007825032230
         C           -1.595311299874    -0.974898412775     1.146200303206    12.000000000000
         O            0.357262707998     2.554912879501     0.724418411905    15.994914619570
         H           -1.838682252212    -1.664011632647     1.951338232825     1.007825032230
         H           -2.191714094757    -0.072604085238     1.255407629244     1.007825032230
         C           -1.939403740599    -1.605841546433    -0.170291470408    12.000000000000
         O           -1.790667602984    -2.940414492556    -0.151096175891    15.994914619570
         O           -2.270805115517    -1.000474037274    -1.173448824536    15.994914619570
         C            2.687215308305    -0.543328822156    -0.255517562110    12.000000000000
         C            4.154605211916    -0.223194347834    -0.110641625726    12.000000000000
         O            2.289616908537    -1.607731379036    -0.721435337827    15.994914619570
         H            4.616634631425    -0.986755554232     0.510442562000     1.007825032230
         H            4.337480441136     0.756076310221     0.324263119885     1.007825032230
         H            4.617269324574    -0.273505660616    -1.093425739567     1.007825032230
         N           -1.406004336839     1.760431970830    -0.490270693273    14.003074004430
         C           -2.162829753259     2.994133790735    -0.471211758377    12.000000000000
         H           -1.792120227724     0.937606335820    -0.936918190875     1.007825032230
         H           -2.307238746319     3.375094362279    -1.480272390331     1.007825032230
         H           -3.136430998674     2.845381438093    -0.007463823200     1.007825032230
         H           -1.597534248690     3.718885206650     0.105841173140     1.007825032230
         H           -1.952381192716    -3.243551770168    -1.058085471766     1.007825032230

  Running in c1 symmetry.

  Rotational constants: A =      0.02447  B =      0.01831  C =      0.01190 [cm^-1]
  Rotational constants: A =    733.63880  B =    548.88741  C =    356.80884 [MHz]
  Nuclear repulsion =  962.540481262162984

  Charge       = 0
  Multiplicity = 1
  Electrons    = 108
  Nalpha       = 54
  Nbeta        = 54

  ==> Algorithm <==

  SCF Algorithm Type is DF.
  DIIS enabled.
  MOM disabled.
  Fractional occupation disabled.
  Guess Type is SAD.
  Energy threshold   = 1.00e-08
  Density threshold  = 1.00e-06
  Integral threshold = 1.00e-12

  ==> Primary Basis <==

  Basis Set: DEF2-TZVP
    Blend: DEF2-TZVP
    Number of shells: 210
    Number of basis functions: 518
    Number of Cartesian functions: 588
    Spherical Harmonics?: true
    Max angular momentum: 3

  ==> DFT Potential <==

   => LibXC <=

    Version 7.1.2
    S. Lehtola, C. Steigemann, M. J. T. Oliveira, and M. A. L. Marques,  SoftwareX 7, 1–5 (2018) (10.1016/j.softx.2017.11.002)

   => Composite Functional: B3LYP-D3BJ2B <= 

    B3LYP-d3bj2b Hyb-GGA Exchange-Correlation Functional

    P. J. Stephens, F. J. Devlin, C. F. Chabalowski, and M. J. Frisch,  J. Phys. Chem. 98, 11623 (1994) (10.1021/j100096a001)

    Deriv               =              1
    GGA                 =           TRUE
    Meta                =          FALSE

    Exchange Hybrid     =           TRUE
    MP2 Hybrid          =          FALSE

   => Exchange Functionals <=

    0.0800   Slater exchange
    0.7200         Becke 88

   => Exact (HF) Exchange <=

    0.2000               HF 

   => Correlation Functionals <=

    0.1900   Vosko, Wilk & Nusair (VWN5_RPA)
    0.8100   Lee, Yang & Parr

   => LibXC Density Thresholds  <==

    XC_HYB_GGA_XC_B3LYP:  1.00E-15 

   => Molecular Quadrature <=

    Radial Scheme          =       TREUTLER
    Pruning Scheme         =           NONE
    Nuclear Scheme         =       TREUTLER

    Blocking Scheme        =         OCTREE
    BS radius alpha        =              1
    Pruning alpha          =              1
    Radial Points          =             75
    Spherical Points       =            302
    Total Points           =         581944
    Total Blocks           =           4192
    Max Points             =            256
    Max Functions          =            416
    Weights Tolerance      =       1.00E-15

   => Loading Basis Set <=

    Name: (DEF2-TZVP AUX)
    Role: JKFIT
    Keyword: DF_BASIS_SCF
    atoms 1, 22                          entry N          line   258 file /Users/hoyoun/micromamba/envs/psi4env/share/psi4/basis/def2-universal-jkfit.gbs 
    atoms 2, 4, 7-8, 11-12, 19-21, 24-28 entry H          line    18 file /Users/hoyoun/micromamba/envs/psi4env/share/psi4/basis/def2-universal-jkfit.gbs 
    atoms 3, 5-6, 9, 13, 16-17, 23       entry C          line   198 file /Users/hoyoun/micromamba/envs/psi4env/share/psi4/basis/def2-universal-jkfit.gbs 
    atoms 10, 14-15, 18                  entry O          line   318 file /Users/hoyoun/micromamba/envs/psi4env/share/psi4/basis/def2-universal-jkfit.gbs 

  ==> Integral Setup <==

  ==> DiskDFJK: Density-Fitted J/K Matrices <==

    J tasked:                  Yes
    K tasked:                  Yes
    wK tasked:                  No
    OpenMP threads:              8
    Integrals threads:           8
    Memory [MiB]:             1181
    Algorithm:                Disk
    Integral Cache:           NONE
    Schwarz Cutoff:          1E-12
    Fitting Condition:       1E-10

   => Auxiliary Basis Set <=

  Basis Set: (DEF2-TZVP AUX)
    Blend: DEF2-UNIVERSAL-JKFIT
    Number of shells: 434
    Number of basis functions: 1314
    Number of Cartesian functions: 1550
    Spherical Harmonics?: true
    Max angular momentum: 4

  Cached 20.0% of DFT collocation blocks in 0.928 [GiB].

  Minimum eigenvalue in the overlap matrix is 8.2795790367E-05.
  Reciprocal condition number of the overlap matrix is 7.8266020879E-06.
    Using symmetric orthogonalization.

  ==> Pre-Iterations <==

  SCF Guess: Superposition of Atomic Densities via on-the-fly atomic UHF (no occupation information).

   -------------------------
    Irrep   Nso     Nmo    
   -------------------------
     A        518     518 
   -------------------------
    Total     518     518
   -------------------------

  ==> Iterations <==

                           Total Energy        Delta E     RMS |[F,P]|

   @DF-RKS iter SAD:  -723.19639293129535   -7.23196e+02   0.00000e+00 
   @DF-RKS iter   1:  -722.99651091905844    1.99882e-01   3.11551e-03 DIIS/ADIIS
   @DF-RKS iter   2:  -722.38611960682215    6.10391e-01   3.83842e-03 DIIS/ADIIS
   @DF-RKS iter   3:  -724.05712489105690   -1.67101e+00   5.95801e-04 DIIS/ADIIS
   @DF-RKS iter   4:  -724.08240416792535   -2.52793e-02   3.11175e-04 DIIS/ADIIS
   @DF-RKS iter   5:  -724.09165463154079   -9.25046e-03   9.56541e-05 DIIS
   @DF-RKS iter   6:  -724.09259370200948   -9.39070e-04   2.05595e-05 DIIS
   @DF-RKS iter   7:  -724.09263800254121   -4.43005e-05   5.56389e-06 DIIS
   @DF-RKS iter   8:  -724.09264086404903   -2.86151e-06   2.31268e-06 DIIS
   @DF-RKS iter   9:  -724.09264135665887   -4.92610e-07   1.01979e-06 DIIS
   @DF-RKS iter  10:  -724.09264145233249   -9.56736e-08   2.84837e-07 DIIS
   @DF-RKS iter  11:  -724.09264146021167   -7.87918e-09   7.20259e-08 DIIS
  Energy and wave function converged.


  ==> Post-Iterations <==

   Electrons on quadrature grid:
      Ntotal   =  107.9998952550 ; deviation = -1.047e-04 

    Orbital Energies [Eh]
    ---------------------

    Doubly Occupied:                                                      

       1A    -19.197679     2A    -19.142072     3A    -19.099238  
       4A    -19.084228     5A    -14.345878     6A    -14.338590  
       7A    -10.329837     8A    -10.277790     9A    -10.270218  
      10A    -10.224227    11A    -10.205127    12A    -10.203131  
      13A    -10.193655    14A    -10.173714    15A     -1.135158  
      16A     -1.048320    17A     -1.043302    18A     -1.032008  
      19A     -0.933160    20A     -0.929423    21A     -0.826358  
      22A     -0.768167    23A     -0.733128    24A     -0.707906  
      25A     -0.660160    26A     -0.619318    27A     -0.597252  
      28A     -0.587825    29A     -0.543630    30A     -0.525820  
      31A     -0.515927    32A     -0.498745    33A     -0.480770  
      34A     -0.475459    35A     -0.468702    36A     -0.459980  
      37A     -0.452415    38A     -0.449998    39A     -0.431269  
      40A     -0.418341    41A     -0.413099    42A     -0.406837  
      43A     -0.400322    44A     -0.395770    45A     -0.384909  
      46A     -0.380032    47A     -0.371748    48A     -0.352831  
      49A     -0.346638    50A     -0.308189    51A     -0.276684  
      52A     -0.269424    53A     -0.257817    54A     -0.255153  

    Virtual:                                                              

      55A     -0.026412    56A      0.005348    57A      0.018879  
      58A      0.023859    59A      0.036757    60A      0.040953  
      61A      0.056236    62A      0.073993    63A      0.081213  
      64A      0.083418    65A      0.092197    66A      0.105868  
      67A      0.108776    68A      0.117311    69A      0.122664  
      70A      0.124668    71A      0.130081    72A      0.137045  
      73A      0.151238    74A      0.156943    75A      0.163780  
      76A      0.172115    77A      0.180182    78A      0.189920  
      79A      0.191012    80A      0.201008    81A      0.203671  
      82A      0.211046    83A      0.223869    84A      0.230003  
      85A      0.235872    86A      0.239637    87A      0.241561  
      88A      0.257827    89A      0.279769    90A      0.288211  
      91A      0.294118    92A      0.310378    93A      0.315979  
      94A      0.324632    95A      0.330444    96A      0.341466  
      97A      0.344994    98A      0.356623    99A      0.358073  
     100A      0.361872   101A      0.375705   102A      0.387346  
     103A      0.391647   104A      0.396733   105A      0.399130  
     106A      0.402807   107A      0.406003   108A      0.410413  
     109A      0.417099   110A      0.422719   111A      0.426209  
     112A      0.433900   113A      0.441023   114A      0.443393  
     115A      0.450613   116A      0.459639   117A      0.464513  
     118A      0.472989   119A      0.475315   120A      0.479218  
     121A      0.493514   122A      0.496221   123A      0.506148  
     124A      0.508674   125A      0.520064   126A      0.526332  
     127A      0.533620   128A      0.538291   129A      0.546632  
     130A      0.553933   131A      0.563252   132A      0.575011  
     133A      0.582679   134A      0.585970   135A      0.592625  
     136A      0.602334   137A      0.615548   138A      0.616699  
     139A      0.628355   140A      0.641696   141A      0.655430  
     142A      0.668187   143A      0.683982   144A      0.701778  
     145A      0.712772   146A      0.727069   147A      0.733555  
     148A      0.752130   149A      0.759612   150A      0.777211  
     151A      0.790978   152A      0.796715   153A      0.809400  
     154A      0.827297   155A      0.841685   156A      0.849676  
     157A      0.861143   158A      0.873979   159A      0.881555  
     160A      0.890442   161A      0.899404   162A      0.911094  
     163A      0.918426   164A      0.934030   165A      0.948506  
     166A      0.966701   167A      0.974560   168A      0.975292  
     169A      0.978135   170A      0.992146   171A      1.007899  
     172A      1.022461   173A      1.039096   174A      1.049605  
     175A      1.061962   176A      1.071968   177A      1.088515  
     178A      1.093086   179A      1.113284   180A      1.144434  
     181A      1.148186   182A      1.163186   183A      1.166024  
     184A      1.170437   185A      1.203428   186A      1.223996  
     187A      1.237523   188A      1.261646   189A      1.273021  
     190A      1.299124   191A      1.312812   192A      1.320060  
     193A      1.330784   194A      1.353711   195A      1.360946  
     196A      1.373580   197A      1.392144   198A      1.406764  
     199A      1.419135   200A      1.439347   201A      1.448405  
     202A      1.456995   203A      1.482367   204A      1.485239  
     205A      1.493642   206A      1.497223   207A      1.497998  
     208A      1.516208   209A      1.527586   210A      1.531166  
     211A      1.535912   212A      1.541303   213A      1.548185  
     214A      1.550084   215A      1.565670   216A      1.573277  
     217A      1.590202   218A      1.593031   219A      1.609476  
     220A      1.617970   221A      1.633037   222A      1.646610  
     223A      1.657240   224A      1.678417   225A      1.695207  
     226A      1.705024   227A      1.717677   228A      1.724103  
     229A      1.737808   230A      1.758844   231A      1.765299  
     232A      1.771922   233A      1.785640   234A      1.804954  
     235A      1.817978   236A      1.828370   237A      1.841445  
     238A      1.857721   239A      1.863928   240A      1.871772  
     241A      1.896756   242A      1.905129   243A      1.919879  
     244A      1.933373   245A      1.943855   246A      1.958806  
     247A      1.959949   248A      1.967883   249A      1.986065  
     250A      1.998747   251A      2.006067   252A      2.017154  
     253A      2.021919   254A      2.055962   255A      2.074050  
     256A      2.080035   257A      2.097134   258A      2.122833  
     259A      2.137097   260A      2.159280   261A      2.164461  
     262A      2.175936   263A      2.179735   264A      2.185210  
     265A      2.206186   266A      2.213479   267A      2.219975  
     268A      2.250768   269A      2.256687   270A      2.273260  
     271A      2.279344   272A      2.295770   273A      2.305627  
     274A      2.313739   275A      2.323073   276A      2.343865  
     277A      2.352150   278A      2.358989   279A      2.377939  
     280A      2.380255   281A      2.391905   282A      2.406623  
     283A      2.418993   284A      2.421718   285A      2.439416  
     286A      2.462020   287A      2.468009   288A      2.500912  
     289A      2.508283   290A      2.511466   291A      2.539984  
     292A      2.546639   293A      2.557986   294A      2.560458  
     295A      2.565425   296A      2.587464   297A      2.602046  
     298A      2.610296   299A      2.616401   300A      2.629125  
     301A      2.638000   302A      2.662122   303A      2.664387  
     304A      2.676541   305A      2.693192   306A      2.698774  
     307A      2.719968   308A      2.733676   309A      2.734240  
     310A      2.758354   311A      2.778671   312A      2.783930  
     313A      2.802464   314A      2.831137   315A      2.840184  
     316A      2.852992   317A      2.857332   318A      2.878076  
     319A      2.895347   320A      2.917935   321A      2.928558  
     322A      2.940604   323A      2.952298   324A      2.957045  
     325A      2.977994   326A      2.995256   327A      3.004321  
     328A      3.007560   329A      3.013653   330A      3.029040  
     331A      3.042293   332A      3.051214   333A      3.059698  
     334A      3.074519   335A      3.090097   336A      3.103251  
     337A      3.110982   338A      3.113204   339A      3.130966  
     340A      3.139035   341A      3.156807   342A      3.167200  
     343A      3.172195   344A      3.185808   345A      3.189649  
     346A      3.212950   347A      3.220839   348A      3.229148  
     349A      3.238792   350A      3.243265   351A      3.268579  
     352A      3.277764   353A      3.291024   354A      3.298042  
     355A      3.310528   356A      3.319209   357A      3.326817  
     358A      3.333843   359A      3.342067   360A      3.356007  
     361A      3.365396   362A      3.377286   363A      3.390657  
     364A      3.391072   365A      3.397310   366A      3.406824  
     367A      3.415810   368A      3.420104   369A      3.446337  
     370A      3.459692   371A      3.468377   372A      3.486690  
     373A      3.503264   374A      3.512782   375A      3.537367  
     376A      3.544347   377A      3.554966   378A      3.560180  
     379A      3.582367   380A      3.609088   381A      3.614487  
     382A      3.640363   383A      3.687917   384A      3.700304  
     385A      3.716998   386A      3.733340   387A      3.747728  
     388A      3.769853   389A      3.777764   390A      3.809763  
     391A      3.816917   392A      3.826049   393A      3.858102  
     394A      3.865942   395A      3.881773   396A      3.896054  
     397A      3.900071   398A      3.933001   399A      3.964161  
     400A      3.992841   401A      4.008812   402A      4.019460  
     403A      4.046786   404A      4.079496   405A      4.086711  
     406A      4.094442   407A      4.112139   408A      4.156439  
     409A      4.160115   410A      4.205221   411A      4.254735  
     412A      4.278606   413A      4.294530   414A      4.324154  
     415A      4.359974   416A      4.378175   417A      4.393566  
     418A      4.399062   419A      4.414540   420A      4.429689  
     421A      4.437076   422A      4.489636   423A      4.514205  
     424A      4.520728   425A      4.575917   426A      4.602364  
     427A      4.625966   428A      4.641760   429A      4.672936  
     430A      4.724639   431A      4.748848   432A      4.775501  
     433A      4.804746   434A      4.817630   435A      4.841814  
     436A      4.873411   437A      4.918834   438A      4.964479  
     439A      5.049983   440A      5.057044   441A      5.067176  
     442A      5.087291   443A      5.123838   444A      5.131980  
     445A      5.160204   446A      5.166072   447A      5.177663  
     448A      5.191616   449A      5.209313   450A      5.243758  
     451A      5.263303   452A      5.282029   453A      5.299733  
     454A      5.316114   455A      5.347345   456A      5.358580  
     457A      5.374212   458A      5.399433   459A      5.476072  
     460A      5.484959   461A      5.504129   462A      5.529843  
     463A      5.573277   464A      5.578854   465A      5.637799  
     466A      5.671456   467A      5.699855   468A      5.734523  
     469A      5.820422   470A      5.825964   471A      5.843473  
     472A      5.884113   473A      5.945502   474A      5.970890  
     475A      6.114694   476A      6.134553   477A      6.147237  
     478A      6.198960   479A      6.322104   480A      6.333096  
     481A      6.339307   482A      6.348814   483A      6.418448  
     484A      6.421573   485A      6.440362   486A      6.513322  
     487A      6.570581   488A      6.584931   489A      6.637383  
     490A      6.686927   491A      6.716639   492A      6.719840  
     493A      6.749440   494A      6.818183   495A      6.841144  
     496A      6.846351   497A      6.871845   498A      7.064274  
     499A      7.071088   500A      7.091078   501A      7.095967  
     502A      7.107232   503A      7.133877   504A      7.287059  
     505A     22.317629   506A     22.406889   507A     22.504899  
     508A     22.534212   509A     22.760653   510A     23.214070  
     511A     23.323134   512A     23.356162   513A     32.400187  
     514A     32.559985   515A     43.779304   516A     43.861141  
     517A     43.920009   518A     43.949610  

    Final Occupation by Irrep:
              A 
    DOCC [    54 ]
    NA   [    54 ]
    NB   [    54 ]

  @DF-RKS Final Energy:  -724.09264146021167

   => Energetics <=

    Nuclear Repulsion Energy =            962.5404812621629844
    One-Electron Energy =               -2898.2493598725591255
    Two-Electron Energy =                1290.2035013337215332
    DFT Exchange-Correlation Energy =     -78.5384655840302344
    Empirical Dispersion Energy =          -0.0487985995067459
    VV10 Nonlocal Energy =                  0.0000000000000000
    Total Energy =                       -724.0926414602116665

Computation Completed


Properties will be evaluated at   0.000000,   0.000000,   0.000000 [a0]

Properties computed using the SCF density matrix


 Multipole Moments:

 ------------------------------------------------------------------------------------
     Multipole            Electronic (a.u.)      Nuclear  (a.u.)        Total (a.u.)
 ------------------------------------------------------------------------------------

 L = 1.  Multiply by 2.5417464519 to convert [e a0] to [Debye]
 Dipole X            :         -2.3235107            1.5505742           -0.7729364
 Dipole Y            :         -2.8164972            2.8246960            0.0081988
 Dipole Z            :          2.6872428           -2.3531815            0.3340613
 Magnitude           :                                                    0.8420777

 ------------------------------------------------------------------------------------

*** tstop() called on choehoyun-ui-MacBookAir.local at Sun Aug  9 02:29:12 2026
Module time:
	user time   =     309.39 seconds =       5.16 minutes
	system time =       6.25 seconds =       0.10 minutes
	total time  =         48 seconds =       0.80 minutes
Total time:
	user time   =     309.39 seconds =       5.16 minutes
	system time =       6.25 seconds =       0.10 minutes
	total time  =         48 seconds =       0.80 minutes

    Psi4 stopped on: Sunday, 09 August 2026 02:29AM
    Psi4 wall time for execution: 0:00:47.81

*** Psi4 exiting successfully. Buy a developer a beer!
