
    -----------------------------------------------------------------------
          Psi4: An Open-Source Ab Initio Electronic Structure Package
                               Psi4 1.11 release

                         Git: Rev {} zzzzzzz 


    D. G. A. Smith, L. A. Burns, A. C. Simmonett, R. M. Parrish,
    M. C. Schieber, R. Galvelis, P. Kraus, H. Kruse, R. Di Remigio,
    A. Alenaizan, A. M. James, S. Lehtola, J. P. Misiewicz, M. Scheurer,
    R. A. Shaw, J. B. Schriber, Y. Xie, Z. L. Glick, D. A. Sirianni,
    J. S. O'Brien, J. M. Waldrop, A. Kumar, E. G. Hohenstein,
    B. P. Pritchard, B. R. Brooks, H. F. Schaefer III, A. Yu. Sokolov,
    K. Patkowski, A. E. DePrince III, U. Bozkaya, R. A. King,
    F. A. Evangelista, J. M. Turney, T. D. Crawford, C. D. Sherrill,
    J. Chem. Phys. 152(18) 184108 (2020). https://doi.org/10.1063/5.0006002

                            Additional Code Authors
    E. T. Seidl, C. L. Janssen, E. F. Valeev, M. L. Leininger,
    J. F. Gonthier, R. M. Richard, H. R. McAlexander, M. Saitow, X. Wang,
    P. Verma, M. H. Lechner, A. Jiang, S. Behnle, A. G. Heide,
    M. F. Herbst, D. L. Poole, T. Győri, E. C. Mitchell, J. P. Pederson,
    and A. M. Wallace

             Previous Authors, Complete List of Code Contributors,
                       and Citations for Specific Modules
    https://github.com/psi4/psi4/blob/master/codemeta.json
    https://github.com/psi4/psi4/graphs/contributors
    https://psicode.org/psi4manual/master/introduction.html#citing-psifour

    -----------------------------------------------------------------------


    Psi4 started on: Sunday, 09 August 2026 12:42PM

    Process ID: 58118
    Host:       choehoyun-ui-MacBookAir.local
    PSIDATADIR: /Users/hoyoun/micromamba/envs/psi4env/share/psi4
    Memory:     500.0 MiB
    Threads:    8
    Addons:     a̶d̶c̶c̶, a̶m̶b̶i̶t̶, b̶s̶e̶, c̶c̶t̶3̶, c̶f̶o̶u̶r̶, c̶h̶e̶m̶p̶s̶2̶, c̶p̶p̶e̶, d̶d̶x̶, dftd3,
                d̶f̶t̶d̶4̶, dkh, ecpint, einsums, f̶o̶r̶t̶e̶, gauxc, g̶c̶p̶, g̶d̶m̶a̶,
                g̶e̶o̶m̶e̶t̶r̶i̶c̶, g̶p̶u̶_̶d̶f̶c̶c̶, i̶n̶t̶e̶g̶r̶a̶t̶o̶r̶x̶x̶, i̶p̶i̶,
                l̶i̶b̶e̶f̶p̶, m̶d̶i̶, m̶p̶2̶d̶, m̶r̶c̶c̶, ooo, o̶p̶e̶n̶f̶e̶r̶m̶i̶o̶n̶p̶s̶i̶4̶,
                pcmsolver, p̶s̶i̶4̶f̶o̶c̶k̶c̶i̶, p̶s̶i̶x̶a̶s̶, p̶y̶e̶i̶n̶s̶u̶m̶s̶, r̶e̶s̶p̶,
                s̶i̶m̶i̶n̶t̶, s̶n̶s̶m̶p̶2̶, v̶2̶r̶d̶m̶_̶c̶a̶s̶s̶c̶f̶

  ==> Input File <==

--------------------------------------------------------------------------
memory 3 GB
molecule mol {
0 1
C -1.88389708145388 3.24635182686293 0.02928729499328
C -0.51725322578413 3.06358054990771 -0.01729495870967
C 0.18353649720835 1.82315799815773 0.11904321675418
C 1.52654162429063 1.75182574351136 -0.10233334147463
N 2.39106994861064 0.65157455631199 0.01842925552690
C -2.86732712237341 2.22118852812638 0.03897526259378
C -4.22494249914758 2.46427712552487 0.07836339625625
C -5.33669142993528 1.57093414119231 -0.00285201421497
C -5.40919473436703 0.18840497904881 -0.06316318236135
C -4.34048769873943 -0.72446202186081 0.06949192227804
C -4.38129638410374 -2.08664903079081 -0.13593883022246
C -3.22753610568363 -2.93077551579052 -0.08779483098335
C -1.93547201811022 -2.45536917799916 -0.10832375525061
C -0.74259373589704 -3.19125717723911 0.09776124174266
C 0.51586821976266 -2.62426094237034 0.15234465374178
C 0.81901328924613 -1.25515800172675 -0.12900045203868
C 2.01358754155792 -0.69227015938468 0.19414046238732
C 3.78426391704824 0.97926486992126 -0.02786959644969
O 4.21201337613920 2.11292243856018 -0.07146851208717
O 4.54525160442108 -0.13509853600881 -0.03333097985867
C 5.99019833666108 0.09243415491813 -0.04295506561792
C 6.65450089366674 -1.27174313777457 -0.02014434529104
H -2.24961581401026 4.27496521931410 0.00819686891375
H 0.09906801193924 3.95207349396061 -0.16640640680603
H -0.38036063801526 0.95661360332770 0.44579003531958
H 2.05567768741424 2.65411179160792 -0.38998673490485
H -2.50014564430596 1.20527425084730 -0.06522125602177
H -4.50687717246060 3.51886785414706 0.14029195802532
H -6.29863259214570 2.08134642544992 -0.06837239905940
H -6.39919375294252 -0.23687311154520 -0.24354776024679
H -3.39337870992423 -0.31382630551333 0.39828108230710
H -5.34367424947520 -2.55344586431732 -0.35607384989465
H -3.38802651340134 -4.00930559579653 -0.03089114954190
H -1.81445655742537 -1.38383951688941 -0.25819940284783
H -0.83191073863155 -4.25920492760652 0.30284609456193
H 1.34586562687877 -3.25657836413607 0.47241123403704
H 0.06787199109727 -0.65963864410616 -0.63399942003105
H 2.78593208629800 -1.30304677905872 0.64666735681629
H 6.25120206333255 0.69878304869570 0.83282384749360
H 6.23966271207760 0.66332179112844 -0.94542061159210
H 6.38676306801046 -1.82417817283868 0.88861572117122
H 7.74394016592789 -1.14023391723570 -0.03814315398027
H 6.36113575674472 -1.86405949053327 -0.89502889543304
units angstrom
no_reorient
no_com
}
set basis def2-TZVP
set scf_type disk_df
set freeze_core true
set e_convergence 8
energy('b3lyp-d3bj')
--------------------------------------------------------------------------

  Memory set to   2.794 GiB by Python driver.

Scratch directory: /Users/hoyoun/Documents/Yonsei_AX_Camp/(진짜_이게_최종)/calibration/dft_work/_scratch/i8e/
   => Libint2 <=

    Primary   basis highest AM E, G, H:  7, 6, 3
    Auxiliary basis highest AM E, G, H:  7, 7, 4
    Onebody   basis highest AM E, G, H:  -, -, -
    Solid Harmonics ordering:            Gaussian

*** tstart() called on choehoyun-ui-MacBookAir.local
*** at Sun Aug  9 12:42:07 2026

   => Loading Basis Set <=

    Name: DEF2-TZVP
    Role: ORBITAL
    Keyword: BASIS
    atoms 1-4, 6-18, 21-22 entry C          line   123 file /Users/hoyoun/micromamba/envs/psi4env/share/psi4/basis/def2-tzvp.gbs 
    atoms 5                entry N          line   156 file /Users/hoyoun/micromamba/envs/psi4env/share/psi4/basis/def2-tzvp.gbs 
    atoms 19-20            entry O          line   189 file /Users/hoyoun/micromamba/envs/psi4env/share/psi4/basis/def2-tzvp.gbs 
    atoms 23-43            entry H          line    15 file /Users/hoyoun/micromamba/envs/psi4env/share/psi4/basis/def2-tzvp.gbs 

   => B3LYP-D3(BJ): Empirical Dispersion <=

    Grimme's -D3 (BJ-damping) Dispersion Correction
    Grimme S.; Ehrlich S.; Goerigk L. (2011), J. Comput. Chem., 32: 1456

        s6 =       1.000000
        s8 =       1.988900
        a1 =       0.398100
        a2 =       4.421100


         ---------------------------------------------------------
                                   SCF
               by Justin Turney, Rob Parrish, Andy Simmonett
                          and Daniel G. A. Smith
                              RKS Reference
                        8 Threads,   2861 MiB Core
         ---------------------------------------------------------

  ==> Geometry <==

    Molecular point group: c1
    Full point group: C1

    Geometry (in Angstrom), charge = 0, multiplicity = 1:

       Center              X                  Y                   Z               Mass       
    ------------   -----------------  -----------------  -----------------  -----------------
         C           -1.883897081454     3.246351826863     0.029287294993    12.000000000000
         C           -0.517253225784     3.063580549908    -0.017294958710    12.000000000000
         C            0.183536497208     1.823157998158     0.119043216754    12.000000000000
         C            1.526541624291     1.751825743511    -0.102333341475    12.000000000000
         N            2.391069948611     0.651574556312     0.018429255527    14.003074004430
         C           -2.867327122373     2.221188528126     0.038975262594    12.000000000000
         C           -4.224942499148     2.464277125525     0.078363396256    12.000000000000
         C           -5.336691429935     1.570934141192    -0.002852014215    12.000000000000
         C           -5.409194734367     0.188404979049    -0.063163182361    12.000000000000
         C           -4.340487698739    -0.724462021861     0.069491922278    12.000000000000
         C           -4.381296384104    -2.086649030791    -0.135938830222    12.000000000000
         C           -3.227536105684    -2.930775515791    -0.087794830983    12.000000000000
         C           -1.935472018110    -2.455369177999    -0.108323755251    12.000000000000
         C           -0.742593735897    -3.191257177239     0.097761241743    12.000000000000
         C            0.515868219763    -2.624260942370     0.152344653742    12.000000000000
         C            0.819013289246    -1.255158001727    -0.129000452039    12.000000000000
         C            2.013587541558    -0.692270159385     0.194140462387    12.000000000000
         C            3.784263917048     0.979264869921    -0.027869596450    12.000000000000
         O            4.212013376139     2.112922438560    -0.071468512087    15.994914619570
         O            4.545251604421    -0.135098536009    -0.033330979859    15.994914619570
         C            5.990198336661     0.092434154918    -0.042955065618    12.000000000000
         C            6.654500893667    -1.271743137775    -0.020144345291    12.000000000000
         H           -2.249615814010     4.274965219314     0.008196868914     1.007825032230
         H            0.099068011939     3.952073493961    -0.166406406806     1.007825032230
         H           -0.380360638015     0.956613603328     0.445790035320     1.007825032230
         H            2.055677687414     2.654111791608    -0.389986734905     1.007825032230
         H           -2.500145644306     1.205274250847    -0.065221256022     1.007825032230
         H           -4.506877172461     3.518867854147     0.140291958025     1.007825032230
         H           -6.298632592146     2.081346425450    -0.068372399059     1.007825032230
         H           -6.399193752943    -0.236873111545    -0.243547760247     1.007825032230
         H           -3.393378709924    -0.313826305513     0.398281082307     1.007825032230
         H           -5.343674249475    -2.553445864317    -0.356073849895     1.007825032230
         H           -3.388026513401    -4.009305595797    -0.030891149542     1.007825032230
         H           -1.814456557425    -1.383839516889    -0.258199402848     1.007825032230
         H           -0.831910738632    -4.259204927607     0.302846094562     1.007825032230
         H            1.345865626879    -3.256578364136     0.472411234037     1.007825032230
         H            0.067871991097    -0.659638644106    -0.633999420031     1.007825032230
         H            2.785932086298    -1.303046779059     0.646667356816     1.007825032230
         H            6.251202063333     0.698783048696     0.832823847494     1.007825032230
         H            6.239662712078     0.663321791128    -0.945420611592     1.007825032230
         H            6.386763068010    -1.824178172839     0.888615721171     1.007825032230
         H            7.743940165928    -1.140233917236    -0.038143153980     1.007825032230
         H            6.361135756745    -1.864059490533    -0.895028895433     1.007825032230

  Running in c1 symmetry.

  Rotational constants: A =      0.01425  B =      0.00420  C =      0.00325 [cm^-1]
  Rotational constants: A =    427.21968  B =    125.95649  C =     97.55158 [MHz]
  Nuclear repulsion = 1605.767463986835310

  Charge       = 0
  Multiplicity = 1
  Electrons    = 158
  Nalpha       = 79
  Nbeta        = 79

  ==> Algorithm <==

  SCF Algorithm Type is DISK_DF.
  DIIS enabled.
  MOM disabled.
  Fractional occupation disabled.
  Guess Type is SAD.
  Energy threshold   = 1.00e-08
  Density threshold  = 1.00e-06
  Integral threshold = 1.00e-12

  ==> Primary Basis <==

  Basis Set: DEF2-TZVP
    Blend: DEF2-TZVP
    Number of shells: 326
    Number of basis functions: 808
    Number of Cartesian functions: 918
    Spherical Harmonics?: true
    Max angular momentum: 3

  ==> DFT Potential <==

   => LibXC <=

    Version 7.1.2
    S. Lehtola, C. Steigemann, M. J. T. Oliveira, and M. A. L. Marques,  SoftwareX 7, 1–5 (2018) (10.1016/j.softx.2017.11.002)

   => Composite Functional: B3LYP-D3BJ2B <= 

    B3LYP-d3bj2b Hyb-GGA Exchange-Correlation Functional

    P. J. Stephens, F. J. Devlin, C. F. Chabalowski, and M. J. Frisch,  J. Phys. Chem. 98, 11623 (1994) (10.1021/j100096a001)

    Deriv               =              1
    GGA                 =           TRUE
    Meta                =          FALSE

    Exchange Hybrid     =           TRUE
    MP2 Hybrid          =          FALSE

   => Exchange Functionals <=

    0.0800   Slater exchange
    0.7200         Becke 88

   => Exact (HF) Exchange <=

    0.2000               HF 

   => Correlation Functionals <=

    0.1900   Vosko, Wilk & Nusair (VWN5_RPA)
    0.8100   Lee, Yang & Parr

   => LibXC Density Thresholds  <==

    XC_HYB_GGA_XC_B3LYP:  1.00E-15 

   => Molecular Quadrature <=

    Radial Scheme          =       TREUTLER
    Pruning Scheme         =           NONE
    Nuclear Scheme         =       TREUTLER

    Blocking Scheme        =         OCTREE
    BS radius alpha        =              1
    Pruning alpha          =              1
    Radial Points          =             75
    Spherical Points       =            302
    Total Points           =         890526
    Total Blocks           =           6379
    Max Points             =            256
    Max Functions          =            517
    Weights Tolerance      =       1.00E-15

   => Loading Basis Set <=

    Name: (DEF2-TZVP AUX)
    Role: JKFIT
    Keyword: DF_BASIS_SCF
    atoms 1-4, 6-18, 21-22 entry C          line   198 file /Users/hoyoun/micromamba/envs/psi4env/share/psi4/basis/def2-universal-jkfit.gbs 
    atoms 5                entry N          line   258 file /Users/hoyoun/micromamba/envs/psi4env/share/psi4/basis/def2-universal-jkfit.gbs 
    atoms 19-20            entry O          line   318 file /Users/hoyoun/micromamba/envs/psi4env/share/psi4/basis/def2-universal-jkfit.gbs 
    atoms 23-43            entry H          line    18 file /Users/hoyoun/micromamba/envs/psi4env/share/psi4/basis/def2-universal-jkfit.gbs 

  ==> Integral Setup <==

  ==> DiskDFJK: Density-Fitted J/K Matrices <==

    J tasked:                  Yes
    K tasked:                  Yes
    wK tasked:                  No
    OpenMP threads:              8
    Integrals threads:           8
    Memory [MiB]:             1931
    Algorithm:                Disk
    Integral Cache:           NONE
    Schwarz Cutoff:          1E-12
    Fitting Condition:       1E-10

   => Auxiliary Basis Set <=

  Basis Set: (DEF2-TZVP AUX)
    Blend: DEF2-UNIVERSAL-JKFIT
    Number of shells: 676
    Number of basis functions: 2034
    Number of Cartesian functions: 2390
    Spherical Harmonics?: true
    Max angular momentum: 4

  Cached 2.6% of DFT collocation blocks in 0.209 [GiB].

  Minimum eigenvalue in the overlap matrix is 2.7280615174E-05.
  Reciprocal condition number of the overlap matrix is 2.7501555518E-06.
    Using symmetric orthogonalization.

  ==> Pre-Iterations <==

  SCF Guess: Superposition of Atomic Densities via on-the-fly atomic UHF (no occupation information).

   -------------------------
    Irrep   Nso     Nmo    
   -------------------------
     A        808     808 
   -------------------------
    Total     808     808
   -------------------------

  ==> Iterations <==

                           Total Energy        Delta E     RMS |[F,P]|

   @DF-RKS iter SAD:  -940.61342431963078   -9.40613e+02   0.00000e+00 
   @DF-RKS iter   1:  -940.50710068193291    1.06324e-01   2.26706e-03 DIIS/ADIIS
   @DF-RKS iter   2:  -939.21836365740160    1.28874e+00   2.90164e-03 DIIS/ADIIS
   @DF-RKS iter   3:  -941.71478268640408   -2.49642e+00   1.06120e-03 DIIS/ADIIS
   @DF-RKS iter   4:  -942.13781628151935   -4.23034e-01   4.33926e-04 DIIS/ADIIS
   @DF-RKS iter   5:  -942.20326701335625   -6.54507e-02   1.97333e-04 DIIS/ADIIS
   @DF-RKS iter   6:  -942.21483720435356   -1.15702e-02   8.47389e-05 DIIS
   @DF-RKS iter   7:  -942.21743039484090   -2.59319e-03   3.62795e-05 DIIS
   @DF-RKS iter   8:  -942.21791990123654   -4.89506e-04   6.47216e-06 DIIS
   @DF-RKS iter   9:  -942.21793241541604   -1.25142e-05   3.30023e-06 DIIS
   @DF-RKS iter  10:  -942.21793673370144   -4.31829e-06   1.16613e-06 DIIS
   @DF-RKS iter  11:  -942.21793736497102   -6.31270e-07   5.35286e-07 DIIS
   @DF-RKS iter  12:  -942.21793749598032   -1.31009e-07   2.64875e-07 DIIS
   @DF-RKS iter  13:  -942.21793752417670   -2.81964e-08   1.48029e-07 DIIS
   @DF-RKS iter  14:  -942.21793753311442   -8.93772e-09   3.57410e-08 DIIS
  Energy and wave function converged.


  ==> Post-Iterations <==

   Electrons on quadrature grid:
      Ntotal   =  157.9999290806 ; deviation = -7.092e-05 

    Orbital Energies [Eh]
    ---------------------

    Doubly Occupied:                                                      

       1A    -19.193274     2A    -19.128620     3A    -14.401262  
       4A    -10.347804     5A    -10.250524     6A    -10.226727  
       7A    -10.223553     8A    -10.188563     9A    -10.187891  
      10A    -10.187534    11A    -10.185111    12A    -10.183602  
      13A    -10.183583    14A    -10.183366    15A    -10.182942  
      16A    -10.181234    17A    -10.179606    18A    -10.179070  
      19A    -10.178752    20A    -10.178323    21A    -10.178184  
      22A    -10.176616    23A     -1.131330    24A     -1.041499  
      25A     -0.980408    26A     -0.836937    27A     -0.830364  
      28A     -0.817321    29A     -0.804422    30A     -0.794985  
      31A     -0.772157    32A     -0.762821    33A     -0.726034  
      34A     -0.707444    35A     -0.677727    36A     -0.657172  
      37A     -0.644225    38A     -0.615786    39A     -0.604720  
      40A     -0.579873    41A     -0.572927    42A     -0.559452  
      43A     -0.550626    44A     -0.540401    45A     -0.532968  
      46A     -0.518676    47A     -0.512826    48A     -0.491683  
      49A     -0.486393    50A     -0.475389    51A     -0.465902  
      52A     -0.462499    53A     -0.452638    54A     -0.444296  
      55A     -0.432588    56A     -0.426780    57A     -0.415433  
      58A     -0.409502    59A     -0.408689    60A     -0.407033  
      61A     -0.399517    62A     -0.388954    63A     -0.379596  
      64A     -0.375561    65A     -0.373441    66A     -0.370421  
      67A     -0.357359    68A     -0.355863    69A     -0.352690  
      70A     -0.347936    71A     -0.334456    72A     -0.329694  
      73A     -0.323808    74A     -0.316563    75A     -0.308283  
      76A     -0.268469    77A     -0.260082    78A     -0.200860  
      79A     -0.183770  

    Virtual:                                                              

      80A     -0.092972    81A     -0.064083    82A     -0.023431  
      83A     -0.001343    84A      0.020247    85A      0.026023  
      86A      0.033288    87A      0.047083    88A      0.053486  
      89A      0.054850    90A      0.061641    91A      0.063985  
      92A      0.065309    93A      0.073600    94A      0.073902  
      95A      0.079982    96A      0.084004    97A      0.088300  
      98A      0.090592    99A      0.092956   100A      0.094904  
     101A      0.102705   102A      0.113084   103A      0.115409  
     104A      0.117045   105A      0.123821   106A      0.128930  
     107A      0.141147   108A      0.146522   109A      0.149091  
     110A      0.151291   111A      0.160312   112A      0.163887  
     113A      0.172393   114A      0.174657   115A      0.179637  
     116A      0.184867   117A      0.189146   118A      0.197326  
     119A      0.200064   120A      0.202634   121A      0.206404  
     122A      0.208470   123A      0.211724   124A      0.217391  
     125A      0.220452   126A      0.223674   127A      0.225989  
     128A      0.230681   129A      0.236405   130A      0.240546  
     131A      0.245924   132A      0.251452   133A      0.255983  
     134A      0.256370   135A      0.258637   136A      0.261968  
     137A      0.271443   138A      0.274387   139A      0.281118  
     140A      0.282519   141A      0.285326   142A      0.286610  
     143A      0.292806   144A      0.297208   145A      0.299961  
     146A      0.307557   147A      0.309800   148A      0.311198  
     149A      0.315806   150A      0.318555   151A      0.321606  
     152A      0.330461   153A      0.334807   154A      0.344641  
     155A      0.349628   156A      0.352379   157A      0.354136  
     158A      0.358578   159A      0.365331   160A      0.370362  
     161A      0.373041   162A      0.380451   163A      0.384002  
     164A      0.386597   165A      0.389310   166A      0.392454  
     167A      0.394310   168A      0.399500   169A      0.400897  
     170A      0.406937   171A      0.408182   172A      0.411499  
     173A      0.420213   174A      0.423005   175A      0.425850  
     176A      0.432216   177A      0.438219   178A      0.438470  
     179A      0.442436   180A      0.443886   181A      0.448898  
     182A      0.453698   183A      0.456942   184A      0.461816  
     185A      0.467811   186A      0.478056   187A      0.481226  
     188A      0.489469   189A      0.492672   190A      0.498156  
     191A      0.503365   192A      0.506389   193A      0.508469  
     194A      0.514352   195A      0.516399   196A      0.519001  
     197A      0.523217   198A      0.530267   199A      0.532080  
     200A      0.544753   201A      0.547814   202A      0.556659  
     203A      0.560481   204A      0.567290   205A      0.570963  
     206A      0.586453   207A      0.595547   208A      0.598585  
     209A      0.600686   210A      0.604906   211A      0.607808  
     212A      0.611949   213A      0.618228   214A      0.623227  
     215A      0.623416   216A      0.636962   217A      0.640883  
     218A      0.647275   219A      0.656143   220A      0.658695  
     221A      0.661007   222A      0.671777   223A      0.675727  
     224A      0.679148   225A      0.682920   226A      0.686367  
     227A      0.687384   228A      0.694194   229A      0.705468  
     230A      0.706581   231A      0.710246   232A      0.712986  
     233A      0.718977   234A      0.723444   235A      0.730587  
     236A      0.737870   237A      0.743005   238A      0.751629  
     239A      0.758459   240A      0.768891   241A      0.774241  
     242A      0.777410   243A      0.784113   244A      0.787689  
     245A      0.793404   246A      0.802489   247A      0.808589  
     248A      0.815374   249A      0.824333   250A      0.831515  
     251A      0.837826   252A      0.843398   253A      0.846767  
     254A      0.849344   255A      0.855997   256A      0.860659  
     257A      0.867359   258A      0.872803   259A      0.880169  
     260A      0.884013   261A      0.895881   262A      0.900532  
     263A      0.914608   264A      0.923098   265A      0.924383  
     266A      0.929507   267A      0.931790   268A      0.940072  
     269A      0.956217   270A      0.963616   271A      0.968302  
     272A      0.978704   273A      0.986519   274A      0.989988  
     275A      0.992507   276A      1.003005   277A      1.007650  
     278A      1.013767   279A      1.018068   280A      1.026790  
     281A      1.036670   282A      1.046757   283A      1.054209  
     284A      1.056054   285A      1.064685   286A      1.075230  
     287A      1.080548   288A      1.095541   289A      1.102043  
     290A      1.106097   291A      1.114825   292A      1.123780  
     293A      1.133749   294A      1.145526   295A      1.149377  
     296A      1.157417   297A      1.163141   298A      1.170846  
     299A      1.173502   300A      1.183571   301A      1.191021  
     302A      1.196201   303A      1.203076   304A      1.207763  
     305A      1.221964   306A      1.229542   307A      1.235183  
     308A      1.242242   309A      1.260535   310A      1.266769  
     311A      1.277878   312A      1.280079   313A      1.284825  
     314A      1.295022   315A      1.304699   316A      1.306101  
     317A      1.317942   318A      1.324326   319A      1.331324  
     320A      1.332287   321A      1.341571   322A      1.357457  
     323A      1.364510   324A      1.375753   325A      1.379297  
     326A      1.395974   327A      1.402135   328A      1.407256  
     329A      1.415590   330A      1.422580   331A      1.431502  
     332A      1.443149   333A      1.444635   334A      1.449494  
     335A      1.465054   336A      1.467458   337A      1.471840  
     338A      1.476132   339A      1.480056   340A      1.492966  
     341A      1.497644   342A      1.501074   343A      1.505547  
     344A      1.513173   345A      1.521249   346A      1.527762  
     347A      1.530395   348A      1.533254   349A      1.534944  
     350A      1.539908   351A      1.545088   352A      1.546072  
     353A      1.551563   354A      1.556908   355A      1.563751  
     356A      1.571826   357A      1.572653   358A      1.578101  
     359A      1.591229   360A      1.606346   361A      1.606645  
     362A      1.614477   363A      1.620739   364A      1.622983  
     365A      1.630911   366A      1.644350   367A      1.658976  
     368A      1.660230   369A      1.665505   370A      1.672054  
     371A      1.687030   372A      1.695959   373A      1.713837  
     374A      1.720910   375A      1.725697   376A      1.736430  
     377A      1.742546   378A      1.751176   379A      1.760066  
     380A      1.766498   381A      1.773726   382A      1.776150  
     383A      1.780926   384A      1.784426   385A      1.790105  
     386A      1.796025   387A      1.805891   388A      1.823732  
     389A      1.830985   390A      1.839713   391A      1.843347  
     392A      1.845654   393A      1.853656   394A      1.867480  
     395A      1.869937   396A      1.877962   397A      1.881312  
     398A      1.889864   399A      1.905294   400A      1.915950  
     401A      1.922952   402A      1.935728   403A      1.942573  
     404A      1.952294   405A      1.958007   406A      1.966100  
     407A      1.971024   408A      1.981805   409A      1.992130  
     410A      1.996179   411A      1.999020   412A      2.011742  
     413A      2.019419   414A      2.035830   415A      2.048467  
     416A      2.054795   417A      2.061427   418A      2.066316  
     419A      2.078374   420A      2.078950   421A      2.091262  
     422A      2.108794   423A      2.112029   424A      2.118442  
     425A      2.123498   426A      2.131739   427A      2.142506  
     428A      2.153569   429A      2.164925   430A      2.181671  
     431A      2.184576   432A      2.186382   433A      2.208338  
     434A      2.217043   435A      2.224848   436A      2.237344  
     437A      2.239430   438A      2.257937   439A      2.270883  
     440A      2.273700   441A      2.280986   442A      2.282930  
     443A      2.288885   444A      2.297188   445A      2.302594  
     446A      2.306939   447A      2.311347   448A      2.324413  
     449A      2.330636   450A      2.333520   451A      2.347702  
     452A      2.354648   453A      2.375335   454A      2.384820  
     455A      2.394319   456A      2.404286   457A      2.428892  
     458A      2.431712   459A      2.450268   460A      2.459131  
     461A      2.474196   462A      2.481584   463A      2.490083  
     464A      2.501292   465A      2.512738   466A      2.521227  
     467A      2.524125   468A      2.531322   469A      2.538666  
     470A      2.542284   471A      2.551812   472A      2.559460  
     473A      2.566400   474A      2.569551   475A      2.579912  
     476A      2.588758   477A      2.592017   478A      2.597175  
     479A      2.604893   480A      2.608880   481A      2.615387  
     482A      2.625202   483A      2.633214   484A      2.641164  
     485A      2.647928   486A      2.650448   487A      2.652882  
     488A      2.667372   489A      2.668954   490A      2.677802  
     491A      2.681518   492A      2.688817   493A      2.694767  
     494A      2.701498   495A      2.705317   496A      2.711887  
     497A      2.713969   498A      2.717066   499A      2.721030  
     500A      2.727727   501A      2.733547   502A      2.735683  
     503A      2.745778   504A      2.747291   505A      2.755451  
     506A      2.767292   507A      2.778105   508A      2.780077  
     509A      2.788180   510A      2.799350   511A      2.810075  
     512A      2.811602   513A      2.816837   514A      2.825187  
     515A      2.828331   516A      2.837005   517A      2.846515  
     518A      2.855149   519A      2.858115   520A      2.861260  
     521A      2.869862   522A      2.879707   523A      2.884402  
     524A      2.900704   525A      2.904852   526A      2.909426  
     527A      2.915735   528A      2.923604   529A      2.927468  
     530A      2.944007   531A      2.946076   532A      2.952177  
     533A      2.955729   534A      2.956491   535A      2.961106  
     536A      2.974695   537A      2.979727   538A      2.987407  
     539A      2.994963   540A      3.004641   541A      3.009824  
     542A      3.012552   543A      3.021713   544A      3.024969  
     545A      3.033032   546A      3.035561   547A      3.042869  
     548A      3.051332   549A      3.057047   550A      3.060220  
     551A      3.066656   552A      3.068369   553A      3.072140  
     554A      3.077896   555A      3.086104   556A      3.091312  
     557A      3.094658   558A      3.104108   559A      3.106486  
     560A      3.109230   561A      3.115007   562A      3.118354  
     563A      3.122741   564A      3.135242   565A      3.139995  
     566A      3.142077   567A      3.148958   568A      3.152327  
     569A      3.153015   570A      3.161740   571A      3.168069  
     572A      3.175682   573A      3.177663   574A      3.183033  
     575A      3.188429   576A      3.194566   577A      3.194952  
     578A      3.202520   579A      3.206783   580A      3.208058  
     581A      3.213062   582A      3.221380   583A      3.226340  
     584A      3.229521   585A      3.235483   586A      3.242385  
     587A      3.246649   588A      3.253294   589A      3.267257  
     590A      3.276377   591A      3.280934   592A      3.284543  
     593A      3.294332   594A      3.298478   595A      3.299953  
     596A      3.306700   597A      3.312232   598A      3.314616  
     599A      3.314917   600A      3.330331   601A      3.335433  
     602A      3.338310   603A      3.345152   604A      3.356423  
     605A      3.365247   606A      3.372252   607A      3.382542  
     608A      3.388449   609A      3.392355   610A      3.394928  
     611A      3.408433   612A      3.414761   613A      3.424924  
     614A      3.426648   615A      3.435807   616A      3.443891  
     617A      3.446502   618A      3.451015   619A      3.454393  
     620A      3.458948   621A      3.469964   622A      3.475826  
     623A      3.483276   624A      3.488058   625A      3.496274  
     626A      3.513991   627A      3.517646   628A      3.524894  
     629A      3.544868   630A      3.563167   631A      3.567154  
     632A      3.571089   633A      3.579828   634A      3.593156  
     635A      3.596913   636A      3.604482   637A      3.615022  
     638A      3.620688   639A      3.622755   640A      3.637311  
     641A      3.643974   642A      3.655406   643A      3.660893  
     644A      3.673422   645A      3.680667   646A      3.689003  
     647A      3.692984   648A      3.703667   649A      3.710062  
     650A      3.719799   651A      3.725558   652A      3.744783  
     653A      3.748957   654A      3.761191   655A      3.773146  
     656A      3.781941   657A      3.785334   658A      3.806226  
     659A      3.818368   660A      3.834753   661A      3.852787  
     662A      3.863376   663A      3.876522   664A      3.888429  
     665A      3.903090   666A      3.919927   667A      3.923230  
     668A      3.938450   669A      3.957578   670A      3.965755  
     671A      3.968683   672A      3.973313   673A      3.982903  
     674A      3.986901   675A      4.004929   676A      4.033838  
     677A      4.035600   678A      4.051153   679A      4.079058  
     680A      4.111105   681A      4.133696   682A      4.147861  
     683A      4.154520   684A      4.165432   685A      4.174955  
     686A      4.180435   687A      4.198054   688A      4.205112  
     689A      4.230117   690A      4.245317   691A      4.261411  
     692A      4.272068   693A      4.280063   694A      4.289241  
     695A      4.333902   696A      4.334928   697A      4.351851  
     698A      4.354640   699A      4.361829   700A      4.368197  
     701A      4.391215   702A      4.402257   703A      4.437335  
     704A      4.464144   705A      4.469698   706A      4.477275  
     707A      4.494125   708A      4.521517   709A      4.533645  
     710A      4.544586   711A      4.562196   712A      4.572159  
     713A      4.585693   714A      4.591473   715A      4.614923  
     716A      4.624345   717A      4.643170   718A      4.654356  
     719A      4.668939   720A      4.686744   721A      4.693022  
     722A      4.703337   723A      4.713076   724A      4.724165  
     725A      4.745127   726A      4.757962   727A      4.780088  
     728A      4.792639   729A      4.806435   730A      4.834431  
     731A      4.847711   732A      4.868648   733A      4.883018  
     734A      4.889639   735A      4.912415   736A      4.931338  
     737A      4.941282   738A      4.974449   739A      4.995424  
     740A      5.008970   741A      5.027017   742A      5.075948  
     743A      5.090722   744A      5.102574   745A      5.115450  
     746A      5.158041   747A      5.163390   748A      5.170950  
     749A      5.182124   750A      5.212051   751A      5.233702  
     752A      5.241434   753A      5.288618   754A      5.300966  
     755A      5.304771   756A      5.332273   757A      5.355783  
     758A      5.384910   759A      5.450564   760A      5.455349  
     761A      5.484711   762A      5.489877   763A      5.552476  
     764A      5.574202   765A      5.649152   766A      5.736798  
     767A      5.785827   768A      5.845685   769A      5.897864  
     770A      5.970659   771A      6.055430   772A      6.152962  
     773A      6.167728   774A      6.277083   775A      6.336890  
     776A      6.397860   777A      6.515810   778A      6.629645  
     779A      6.722512   780A      6.752222   781A      6.859010  
     782A      6.943785   783A      7.040903   784A      7.125194  
     785A      7.353139   786A      7.422198   787A     22.227598  
     788A     22.242367   789A     22.354542   790A     22.441510  
     791A     22.457013   792A     22.488654   793A     22.503238  
     794A     22.559255   795A     22.587674   796A     22.616495  
     797A     22.631485   798A     22.660325   799A     22.718345  
     800A     22.774888   801A     22.820886   802A     22.909139  
     803A     22.967749   804A     22.992146   805A     23.384051  
     806A     32.937661   807A     43.894154   808A     44.166370  

    Final Occupation by Irrep:
              A 
    DOCC [    79 ]
    NA   [    79 ]
    NB   [    79 ]

  @DF-RKS Final Energy:  -942.21793753311442

   => Energetics <=

    Nuclear Repulsion Energy =           1605.7674639868353097
    One-Electron Energy =               -4464.6367993295625638
    Two-Electron Energy =                2026.0516519531122412
    DFT Exchange-Correlation Energy =    -109.3166437758465008
    Empirical Dispersion Energy =          -0.0836103676531140
    VV10 Nonlocal Energy =                  0.0000000000000000
    Total Energy =                       -942.2179375331144229

Computation Completed


Properties will be evaluated at   0.000000,   0.000000,   0.000000 [a0]

Properties computed using the SCF density matrix


 Multipole Moments:

 ------------------------------------------------------------------------------------
     Multipole            Electronic (a.u.)      Nuclear  (a.u.)        Total (a.u.)
 ------------------------------------------------------------------------------------

 L = 1.  Multiply by 2.5417464519 to convert [e a0] to [Debye]
 Dipole X            :        -15.4381640           16.5376849            1.0995209
 Dipole Y            :        -35.9404507           35.1519076           -0.7885431
 Dipole Z            :          0.8207378           -0.7829807            0.0377571
 Magnitude           :                                                    1.3535775

 ------------------------------------------------------------------------------------

*** tstop() called on choehoyun-ui-MacBookAir.local at Sun Aug  9 12:45:16 2026
Module time:
	user time   =    1168.38 seconds =      19.47 minutes
	system time =      25.50 seconds =       0.42 minutes
	total time  =        189 seconds =       3.15 minutes
Total time:
	user time   =    1168.38 seconds =      19.47 minutes
	system time =      25.50 seconds =       0.42 minutes
	total time  =        189 seconds =       3.15 minutes

    Psi4 stopped on: Sunday, 09 August 2026 12:45PM
    Psi4 wall time for execution: 0:03:09.75

*** Psi4 exiting successfully. Buy a developer a beer!
