
    -----------------------------------------------------------------------
          Psi4: An Open-Source Ab Initio Electronic Structure Package
                               Psi4 1.11 release

                         Git: Rev {} zzzzzzz 


    D. G. A. Smith, L. A. Burns, A. C. Simmonett, R. M. Parrish,
    M. C. Schieber, R. Galvelis, P. Kraus, H. Kruse, R. Di Remigio,
    A. Alenaizan, A. M. James, S. Lehtola, J. P. Misiewicz, M. Scheurer,
    R. A. Shaw, J. B. Schriber, Y. Xie, Z. L. Glick, D. A. Sirianni,
    J. S. O'Brien, J. M. Waldrop, A. Kumar, E. G. Hohenstein,
    B. P. Pritchard, B. R. Brooks, H. F. Schaefer III, A. Yu. Sokolov,
    K. Patkowski, A. E. DePrince III, U. Bozkaya, R. A. King,
    F. A. Evangelista, J. M. Turney, T. D. Crawford, C. D. Sherrill,
    J. Chem. Phys. 152(18) 184108 (2020). https://doi.org/10.1063/5.0006002

                            Additional Code Authors
    E. T. Seidl, C. L. Janssen, E. F. Valeev, M. L. Leininger,
    J. F. Gonthier, R. M. Richard, H. R. McAlexander, M. Saitow, X. Wang,
    P. Verma, M. H. Lechner, A. Jiang, S. Behnle, A. G. Heide,
    M. F. Herbst, D. L. Poole, T. Győri, E. C. Mitchell, J. P. Pederson,
    and A. M. Wallace

             Previous Authors, Complete List of Code Contributors,
                       and Citations for Specific Modules
    https://github.com/psi4/psi4/blob/master/codemeta.json
    https://github.com/psi4/psi4/graphs/contributors
    https://psicode.org/psi4manual/master/introduction.html#citing-psifour

    -----------------------------------------------------------------------


    Psi4 started on: Sunday, 09 August 2026 01:36AM

    Process ID: 43153
    Host:       choehoyun-ui-MacBookAir.local
    PSIDATADIR: /Users/hoyoun/micromamba/envs/psi4env/share/psi4
    Memory:     500.0 MiB
    Threads:    2
    Addons:     a̶d̶c̶c̶, a̶m̶b̶i̶t̶, b̶s̶e̶, c̶c̶t̶3̶, c̶f̶o̶u̶r̶, c̶h̶e̶m̶p̶s̶2̶, c̶p̶p̶e̶, d̶d̶x̶, dftd3,
                d̶f̶t̶d̶4̶, dkh, ecpint, einsums, f̶o̶r̶t̶e̶, gauxc, g̶c̶p̶, g̶d̶m̶a̶,
                g̶e̶o̶m̶e̶t̶r̶i̶c̶, g̶p̶u̶_̶d̶f̶c̶c̶, i̶n̶t̶e̶g̶r̶a̶t̶o̶r̶x̶x̶, i̶p̶i̶,
                l̶i̶b̶e̶f̶p̶, m̶d̶i̶, m̶p̶2̶d̶, m̶r̶c̶c̶, ooo, o̶p̶e̶n̶f̶e̶r̶m̶i̶o̶n̶p̶s̶i̶4̶,
                pcmsolver, p̶s̶i̶4̶f̶o̶c̶k̶c̶i̶, p̶s̶i̶x̶a̶s̶, p̶y̶e̶i̶n̶s̶u̶m̶s̶, r̶e̶s̶p̶,
                s̶i̶m̶i̶n̶t̶, s̶n̶s̶m̶p̶2̶, v̶2̶r̶d̶m̶_̶c̶a̶s̶s̶c̶f̶

  ==> Input File <==

--------------------------------------------------------------------------
memory 6 GB
molecule mol {
0 1
C 0.70301494999273 1.81564487112604 0.00000000000000
H 0.18871498644896 2.20208284353153 0.87966393772213
H 0.18871498644896 2.20208284353153 -0.87966393772213
H 1.71433587851292 2.21892684255620 0.00000000000000
C 0.70301494999273 0.29266797912903 0.00000000000000
H 1.24341791193258 -0.07694399474379 -0.87442593795537
H 1.24341791193258 -0.07694399474379 0.87442593795537
C -0.70301494999273 -0.29266797912903 0.00000000000000
H -1.24341791193258 0.07694399474379 -0.87442593795537
H -1.24341791193258 0.07694399474379 0.87442593795537
C -0.70301494999273 -1.81564487112604 0.00000000000000
H -0.18871498644896 -2.20208284353153 0.87966393772213
H -1.71433587851292 -2.21892684255620 0.00000000000000
H -0.18871498644896 -2.20208284353153 -0.87966393772213
units angstrom
no_reorient
no_com
}
set basis def2-TZVP
set scf_type df
set freeze_core true
energy('b3lyp-d3bj')
--------------------------------------------------------------------------

  Memory set to   5.588 GiB by Python driver.

Scratch directory: /tmp/
   => Libint2 <=

    Primary   basis highest AM E, G, H:  7, 6, 3
    Auxiliary basis highest AM E, G, H:  7, 7, 4
    Onebody   basis highest AM E, G, H:  -, -, -
    Solid Harmonics ordering:            Gaussian

*** tstart() called on choehoyun-ui-MacBookAir.local
*** at Sun Aug  9 01:36:05 2026

   => Loading Basis Set <=

    Name: DEF2-TZVP
    Role: ORBITAL
    Keyword: BASIS
    atoms 1, 5, 8, 11           entry C          line   123 file /Users/hoyoun/micromamba/envs/psi4env/share/psi4/basis/def2-tzvp.gbs 
    atoms 2-4, 6-7, 9-10, 12-14 entry H          line    15 file /Users/hoyoun/micromamba/envs/psi4env/share/psi4/basis/def2-tzvp.gbs 

   => B3LYP-D3(BJ): Empirical Dispersion <=

    Grimme's -D3 (BJ-damping) Dispersion Correction
    Grimme S.; Ehrlich S.; Goerigk L. (2011), J. Comput. Chem., 32: 1456

        s6 =       1.000000
        s8 =       1.988900
        a1 =       0.398100
        a2 =       4.421100


         ---------------------------------------------------------
                                   SCF
               by Justin Turney, Rob Parrish, Andy Simmonett
                          and Daniel G. A. Smith
                              RKS Reference
                        2 Threads,   5722 MiB Core
         ---------------------------------------------------------

  ==> Geometry <==

    Molecular point group: c2h
    Full point group: C2h

    Geometry (in Angstrom), charge = 0, multiplicity = 1:

       Center              X                  Y                   Z               Mass       
    ------------   -----------------  -----------------  -----------------  -----------------
         C            0.703014949993     1.815644871126     0.000000000000    12.000000000000
         H            0.188714986449     2.202082843532     0.879663937722     1.007825032230
         H            0.188714986449     2.202082843532    -0.879663937722     1.007825032230
         H            1.714335878513     2.218926842556     0.000000000000     1.007825032230
         C            0.703014949993     0.292667979129     0.000000000000    12.000000000000
         H            1.243417911933    -0.076943994744    -0.874425937955     1.007825032230
         H            1.243417911933    -0.076943994744     0.874425937955     1.007825032230
         C           -0.703014949993    -0.292667979129     0.000000000000    12.000000000000
         H           -1.243417911933     0.076943994744    -0.874425937955     1.007825032230
         H           -1.243417911933     0.076943994744     0.874425937955     1.007825032230
         C           -0.703014949993    -1.815644871126     0.000000000000    12.000000000000
         H           -0.188714986449    -2.202082843532     0.879663937722     1.007825032230
         H           -1.714335878513    -2.218926842556     0.000000000000     1.007825032230
         H           -0.188714986449    -2.202082843532    -0.879663937722     1.007825032230

  Running in c2h symmetry.

  Rotational constants: A =      0.78605  B =      0.12247  C =      0.11492 [cm^-1]
  Rotational constants: A =  23565.13379  B =   3671.45482  C =   3445.14285 [MHz]
  Nuclear repulsion =  131.145367194952314

  Charge       = 0
  Multiplicity = 1
  Electrons    = 34
  Nalpha       = 17
  Nbeta        = 17

  ==> Algorithm <==

  SCF Algorithm Type is DF.
  DIIS enabled.
  MOM disabled.
  Fractional occupation disabled.
  Guess Type is SAD.
  Energy threshold   = 1.00e-06
  Density threshold  = 1.00e-06
  Integral threshold = 1.00e-12

  ==> Primary Basis <==

  Basis Set: DEF2-TZVP
    Blend: DEF2-TZVP
    Number of shells: 84
    Number of basis functions: 184
    Number of Cartesian functions: 204
    Spherical Harmonics?: true
    Max angular momentum: 3

  ==> DFT Potential <==

   => LibXC <=

    Version 7.1.2
    S. Lehtola, C. Steigemann, M. J. T. Oliveira, and M. A. L. Marques,  SoftwareX 7, 1–5 (2018) (10.1016/j.softx.2017.11.002)

   => Composite Functional: B3LYP-D3BJ2B <= 

    B3LYP-d3bj2b Hyb-GGA Exchange-Correlation Functional

    P. J. Stephens, F. J. Devlin, C. F. Chabalowski, and M. J. Frisch,  J. Phys. Chem. 98, 11623 (1994) (10.1021/j100096a001)

    Deriv               =              1
    GGA                 =           TRUE
    Meta                =          FALSE

    Exchange Hybrid     =           TRUE
    MP2 Hybrid          =          FALSE

   => Exchange Functionals <=

    0.0800   Slater exchange
    0.7200         Becke 88

   => Exact (HF) Exchange <=

    0.2000               HF 

   => Correlation Functionals <=

    0.1900   Vosko, Wilk & Nusair (VWN5_RPA)
    0.8100   Lee, Yang & Parr

   => LibXC Density Thresholds  <==

    XC_HYB_GGA_XC_B3LYP:  1.00E-15 

   => Molecular Quadrature <=

    Radial Scheme          =       TREUTLER
    Pruning Scheme         =           NONE
    Nuclear Scheme         =       TREUTLER

    Blocking Scheme        =         OCTREE
    BS radius alpha        =              1
    Pruning alpha          =              1
    Radial Points          =             75
    Spherical Points       =            302
    Total Points           =         299020
    Total Blocks           =           2288
    Max Points             =            256
    Max Functions          =            182
    Weights Tolerance      =       1.00E-15

   => Loading Basis Set <=

    Name: (DEF2-TZVP AUX)
    Role: JKFIT
    Keyword: DF_BASIS_SCF
    atoms 1, 5, 8, 11           entry C          line   198 file /Users/hoyoun/micromamba/envs/psi4env/share/psi4/basis/def2-universal-jkfit.gbs 
    atoms 2-4, 6-7, 9-10, 12-14 entry H          line    18 file /Users/hoyoun/micromamba/envs/psi4env/share/psi4/basis/def2-universal-jkfit.gbs 

  ==> Integral Setup <==

  DFHelper Memory: AOs need 0.127 GiB; user supplied 2.883 GiB. 
  SCF_SUBTYPE=INCORE selected. In-core MEM_DF algorithm will be used.
  Using in-core AOs.

  ==> MemDFJK: Density-Fitted J/K Matrices <==

    J tasked:                   Yes
    K tasked:                   Yes
    wK tasked:                   No
    OpenMP threads:               2
    Memory [MiB]:              2952
    Algorithm:                 Core
    Schwarz Cutoff:           1E-12
    Mask sparsity (%):       2.2743
    Fitting Condition:        1E-10

   => Auxiliary Basis Set <=

  Basis Set: (DEF2-TZVP AUX)
    Blend: DEF2-UNIVERSAL-JKFIT
    Number of shells: 160
    Number of basis functions: 480
    Number of Cartesian functions: 556
    Spherical Harmonics?: true
    Max angular momentum: 4

  Cached 100.0% of DFT collocation blocks in 1.308 [GiB].

  Minimum eigenvalue in the overlap matrix is 4.0492394711E-04.
  Reciprocal condition number of the overlap matrix is 5.2944542873E-05.
    Using symmetric orthogonalization.

  ==> Pre-Iterations <==

  SCF Guess: Superposition of Atomic Densities via on-the-fly atomic UHF (no occupation information).

   -------------------------
    Irrep   Nso     Nmo    
   -------------------------
     Ag        59      59 
     Bg        33      33 
     Au        33      33 
     Bu        59      59 
   -------------------------
    Total     184     184
   -------------------------

  ==> Iterations <==

                           Total Energy        Delta E     RMS |[F,P]|

   @DF-RKS iter SAD:  -157.83239885264464   -1.57832e+02   0.00000e+00 
   @DF-RKS iter   1:  -157.87652918796474   -4.41303e-02   1.18488e-02 DIIS/ADIIS
   @DF-RKS iter   2:  -157.31133245888699    5.65197e-01   1.53762e-02 DIIS/ADIIS
   @DF-RKS iter   3:  -158.52967568856130   -1.21834e+00   1.08433e-03 DIIS/ADIIS
   @DF-RKS iter   4:  -158.53226247344682   -2.58678e-03   8.01931e-04 DIIS/ADIIS
   @DF-RKS iter   5:  -158.53501472110324   -2.75225e-03   1.02734e-04 DIIS/ADIIS
   @DF-RKS iter   6:  -158.53505880749722   -4.40864e-05   1.32214e-05 DIIS
   @DF-RKS iter   7:  -158.53505965443119   -8.46934e-07   1.89483e-06 DIIS
   @DF-RKS iter   8:  -158.53505967186939   -1.74382e-08   3.96087e-07 DIIS
  Energy and wave function converged.


  ==> Post-Iterations <==

   Electrons on quadrature grid:
      Ntotal   =   33.9998773254 ; deviation = -1.227e-04 

    Orbital Energies [Eh]
    ---------------------

    Doubly Occupied:                                                      

       1Ag   -10.161309     1Bu   -10.161089     2Bu   -10.155013  
       2Ag   -10.155010     3Ag    -0.797435     3Bu    -0.725720  
       4Ag    -0.631628     4Bu    -0.578040     1Au    -0.472559  
       5Ag    -0.428964     5Bu    -0.422267     1Bg    -0.413616  
       6Bu    -0.370665     2Au    -0.352694     6Ag    -0.336436  
       2Bg    -0.325461     7Ag    -0.324643  

    Virtual:                                                              

       8Ag     0.034658     7Bu     0.055437     8Bu     0.077837  
       3Au     0.078979     9Ag     0.105269    10Ag     0.111209  
       3Bg     0.123417     9Bu     0.129555     4Au     0.141441  
       4Bg     0.142127    10Bu     0.161829    11Ag     0.169618  
      11Bu     0.197656    12Ag     0.216925     5Bg     0.233257  
      13Ag     0.243685     5Au     0.247234    12Bu     0.267905  
       6Au     0.294799    13Bu     0.315780    14Ag     0.353059  
       6Bg     0.373110    14Bu     0.378025    15Ag     0.387701  
       7Au     0.414680    15Bu     0.438014    16Bu     0.443081  
      16Ag     0.449882    17Bu     0.460762    17Ag     0.465943  
       7Bg     0.470757    18Ag     0.478792     8Au     0.488551  
      18Bu     0.493843     8Bg     0.514573    19Ag     0.583370  
      19Bu     0.584902    20Ag     0.605083    20Bu     0.653317  
       9Au     0.691832    21Bu     0.707934    21Ag     0.806779  
       9Bg     0.818343    22Ag     0.834885    10Au     0.843915  
      22Bu     0.881223    10Bg     0.947605    23Bu     0.975353  
      23Ag     0.991616    24Ag     1.007017    11Bg     1.028217  
      11Au     1.074000    24Bu     1.104509    12Bg     1.123861  
      25Ag     1.132830    12Au     1.145097    25Bu     1.198212  
      26Bu     1.205544    26Ag     1.271671    27Ag     1.447616  
      27Bu     1.498601    13Au     1.503276    13Bg     1.523014  
      14Au     1.525255    14Bg     1.540797    28Bu     1.548254  
      28Ag     1.550905    15Au     1.579409    29Bu     1.603931  
      15Bg     1.604912    29Ag     1.619861    30Bu     1.658707  
      16Au     1.756547    30Ag     1.757269    31Ag     1.791542  
      16Bg     1.823323    17Au     1.850185    32Ag     1.854700  
      31Bu     1.901645    33Ag     1.905755    17Bg     1.911704  
      32Bu     1.939453    18Au     2.009819    33Bu     2.068822  
      34Ag     2.077218    34Bu     2.111612    35Ag     2.257015  
      35Bu     2.270090    36Bu     2.283595    18Bg     2.317730  
      19Au     2.325464    19Bg     2.342106    36Ag     2.359435  
      37Bu     2.398379    38Bu     2.419025    37Ag     2.419644  
      38Ag     2.432366    20Au     2.470255    20Bg     2.525343  
      21Au     2.533766    39Ag     2.555548    21Bg     2.588261  
      39Bu     2.601111    22Au     2.634431    40Ag     2.645858  
      22Bg     2.655551    40Bu     2.664576    41Ag     2.678633  
      23Bg     2.692412    23Au     2.717043    41Bu     2.744557  
      42Ag     2.782771    42Bu     2.806128    43Ag     2.920707  
      43Bu     2.944199    24Au     3.015738    24Bg     3.053359  
      44Ag     3.071203    44Bu     3.095162    45Bu     3.134981  
      45Ag     3.146312    25Bg     3.172858    25Au     3.198017  
      46Ag     3.202395    46Bu     3.220884    47Ag     3.279469  
      26Au     3.312977    48Ag     3.336013    47Bu     3.336517  
      26Bg     3.349530    27Bg     3.396745    27Au     3.411417  
      48Bu     3.447226    28Au     3.465771    49Ag     3.511805  
      49Bu     3.529466    28Bg     3.565398    29Au     3.597296  
      29Bg     3.675162    50Bu     3.726328    50Ag     3.751931  
      30Au     3.814628    51Ag     3.868294    31Au     3.887366  
      30Bg     3.890824    51Bu     3.956246    31Bg     3.971040  
      52Ag     4.047552    52Bu     4.102545    53Ag     4.168079  
      32Au     4.301404    54Ag     4.323455    53Bu     4.325145  
      54Bu     4.411940    32Bg     4.472414    33Au     4.530864  
      55Bu     4.531824    33Bg     4.593768    55Ag     4.634218  
      56Ag     4.703608    56Bu     4.730356    57Bu     4.858747  
      57Ag     5.020052    58Ag    22.270835    58Bu    22.344916  
      59Ag    22.399139    59Bu    22.467644  

    Final Occupation by Irrep:
             Ag    Bg    Au    Bu 
    DOCC [     7,    2,    2,    6 ]
    NA   [     7,    2,    2,    6 ]
    NB   [     7,    2,    2,    6 ]

  @DF-RKS Final Energy:  -158.53505967186939

   => Energetics <=

    Nuclear Repulsion Energy =            131.1453671949523141
    One-Electron Energy =                -470.8548970452266076
    Two-Electron Energy =                 201.8427765326871395
    DFT Exchange-Correlation Energy =     -20.6536339252390349
    Empirical Dispersion Energy =          -0.0146724290431925
    VV10 Nonlocal Energy =                  0.0000000000000000
    Total Energy =                       -158.5350596718693907

Computation Completed


Properties will be evaluated at   0.000000,   0.000000,   0.000000 [a0]

Properties computed using the SCF density matrix


 Multipole Moments:

 ------------------------------------------------------------------------------------
     Multipole            Electronic (a.u.)      Nuclear  (a.u.)        Total (a.u.)
 ------------------------------------------------------------------------------------

 L = 1.  Multiply by 2.5417464519 to convert [e a0] to [Debye]
 Dipole X            :          0.0000000           -0.0000000           -0.0000000
 Dipole Y            :          0.0000000            0.0000000            0.0000000
 Dipole Z            :          0.0000000            0.0000000            0.0000000
 Magnitude           :                                                    0.0000000

 ------------------------------------------------------------------------------------

*** tstop() called on choehoyun-ui-MacBookAir.local at Sun Aug  9 01:36:41 2026
Module time:
	user time   =      28.72 seconds =       0.48 minutes
	system time =       4.20 seconds =       0.07 minutes
	total time  =         36 seconds =       0.60 minutes
Total time:
	user time   =      28.72 seconds =       0.48 minutes
	system time =       4.20 seconds =       0.07 minutes
	total time  =         36 seconds =       0.60 minutes

    Psi4 stopped on: Sunday, 09 August 2026 01:36AM
    Psi4 wall time for execution: 0:00:36.29

*** Psi4 exiting successfully. Buy a developer a beer!
