
    -----------------------------------------------------------------------
          Psi4: An Open-Source Ab Initio Electronic Structure Package
                               Psi4 1.11 release

                         Git: Rev {} zzzzzzz 


    D. G. A. Smith, L. A. Burns, A. C. Simmonett, R. M. Parrish,
    M. C. Schieber, R. Galvelis, P. Kraus, H. Kruse, R. Di Remigio,
    A. Alenaizan, A. M. James, S. Lehtola, J. P. Misiewicz, M. Scheurer,
    R. A. Shaw, J. B. Schriber, Y. Xie, Z. L. Glick, D. A. Sirianni,
    J. S. O'Brien, J. M. Waldrop, A. Kumar, E. G. Hohenstein,
    B. P. Pritchard, B. R. Brooks, H. F. Schaefer III, A. Yu. Sokolov,
    K. Patkowski, A. E. DePrince III, U. Bozkaya, R. A. King,
    F. A. Evangelista, J. M. Turney, T. D. Crawford, C. D. Sherrill,
    J. Chem. Phys. 152(18) 184108 (2020). https://doi.org/10.1063/5.0006002

                            Additional Code Authors
    E. T. Seidl, C. L. Janssen, E. F. Valeev, M. L. Leininger,
    J. F. Gonthier, R. M. Richard, H. R. McAlexander, M. Saitow, X. Wang,
    P. Verma, M. H. Lechner, A. Jiang, S. Behnle, A. G. Heide,
    M. F. Herbst, D. L. Poole, T. Győri, E. C. Mitchell, J. P. Pederson,
    and A. M. Wallace

             Previous Authors, Complete List of Code Contributors,
                       and Citations for Specific Modules
    https://github.com/psi4/psi4/blob/master/codemeta.json
    https://github.com/psi4/psi4/graphs/contributors
    https://psicode.org/psi4manual/master/introduction.html#citing-psifour

    -----------------------------------------------------------------------


    Psi4 started on: Monday, 10 August 2026 06:10PM

    Process ID: 73708
    Host:       choehoyun-ui-MacBookAir.local
    PSIDATADIR: /Users/hoyoun/micromamba/envs/psi4env/share/psi4
    Memory:     500.0 MiB
    Threads:    8
    Addons:     a̶d̶c̶c̶, a̶m̶b̶i̶t̶, b̶s̶e̶, c̶c̶t̶3̶, c̶f̶o̶u̶r̶, c̶h̶e̶m̶p̶s̶2̶, c̶p̶p̶e̶, d̶d̶x̶, dftd3,
                d̶f̶t̶d̶4̶, dkh, ecpint, einsums, f̶o̶r̶t̶e̶, gauxc, g̶c̶p̶, g̶d̶m̶a̶,
                g̶e̶o̶m̶e̶t̶r̶i̶c̶, g̶p̶u̶_̶d̶f̶c̶c̶, i̶n̶t̶e̶g̶r̶a̶t̶o̶r̶x̶x̶, i̶p̶i̶,
                l̶i̶b̶e̶f̶p̶, m̶d̶i̶, m̶p̶2̶d̶, m̶r̶c̶c̶, ooo, o̶p̶e̶n̶f̶e̶r̶m̶i̶o̶n̶p̶s̶i̶4̶,
                pcmsolver, p̶s̶i̶4̶f̶o̶c̶k̶c̶i̶, p̶s̶i̶x̶a̶s̶, p̶y̶e̶i̶n̶s̶u̶m̶s̶, r̶e̶s̶p̶,
                s̶i̶m̶i̶n̶t̶, s̶n̶s̶m̶p̶2̶, v̶2̶r̶d̶m̶_̶c̶a̶s̶s̶c̶f̶

  ==> Input File <==

--------------------------------------------------------------------------
memory 3 GB
molecule mol {
0 1
C 1.73988062664921 1.15132121800824 -0.09755604312081
C 1.70692162894656 -0.37055367355978 -0.20583003549158
C 0.59034770825538 -1.04136562587622 0.60439190728202
C -0.71002919979714 -1.27165760963519 -0.16740803822223
C -1.41489014956442 -0.01913569856969 -0.68300900140185
C -1.87173411692683 0.91577323504886 0.43014191956692
H 1.86326061751791 1.45477119656806 0.94234088289258
H 0.82581869116798 1.60959818561589 -0.46769501664032
H 2.57254956713711 1.56635818859441 -0.66440700265610
H 2.67059456031686 -0.75351964654984 0.13325994037923
H 1.61629463502997 -0.66667265276498 -1.25417296105595
H 0.39724672169137 -0.45771066729245 1.50778184287011
H 0.93878268326122 -2.01677655658461 0.94833888273622
H -1.40577514989564 -1.81990757056966 0.47382791613777
H -0.49036321508553 -1.92768956307448 -1.01365897806210
H -2.28450008752835 -0.32942967681364 -1.26539396007995
H -0.76414519558491 0.51399326328046 -1.37803195202323
H -2.42078607820423 1.76741017440865 0.03088094774142
H -1.03069117673928 1.30420920756177 1.00172787899634
H -2.52878307064725 0.39098427220421 1.12447087015152
units angstrom
no_reorient
no_com
}
set basis def2-SVP
set scf_type df
set freeze_core true
set e_convergence 8
energy('b3lyp-d3bj')
--------------------------------------------------------------------------

  Memory set to   2.794 GiB by Python driver.

Scratch directory: /Users/hoyoun/Documents/Yonsei_AX_Camp/(진짜_이게_최종)/calibration/dft_work/_scratch/H_x+g-g-/
   => Libint2 <=

    Primary   basis highest AM E, G, H:  7, 6, 3
    Auxiliary basis highest AM E, G, H:  7, 7, 4
    Onebody   basis highest AM E, G, H:  -, -, -
    Solid Harmonics ordering:            Gaussian

*** tstart() called on choehoyun-ui-MacBookAir.local
*** at Mon Aug 10 18:10:13 2026

   => Loading Basis Set <=

    Name: DEF2-SVP
    Role: ORBITAL
    Keyword: BASIS
    atoms 1-6  entry C          line    90 file /Users/hoyoun/micromamba/envs/psi4env/share/psi4/basis/def2-svp.gbs 
    atoms 7-20 entry H          line    15 file /Users/hoyoun/micromamba/envs/psi4env/share/psi4/basis/def2-svp.gbs 

   => B3LYP-D3(BJ): Empirical Dispersion <=

    Grimme's -D3 (BJ-damping) Dispersion Correction
    Grimme S.; Ehrlich S.; Goerigk L. (2011), J. Comput. Chem., 32: 1456

        s6 =       1.000000
        s8 =       1.988900
        a1 =       0.398100
        a2 =       4.421100


         ---------------------------------------------------------
                                   SCF
               by Justin Turney, Rob Parrish, Andy Simmonett
                          and Daniel G. A. Smith
                              RKS Reference
                        8 Threads,   2861 MiB Core
         ---------------------------------------------------------

  ==> Geometry <==

    Molecular point group: c1
    Full point group: C1

    Geometry (in Angstrom), charge = 0, multiplicity = 1:

       Center              X                  Y                   Z               Mass       
    ------------   -----------------  -----------------  -----------------  -----------------
         C            1.739880626649     1.151321218008    -0.097556043121    12.000000000000
         C            1.706921628947    -0.370553673560    -0.205830035492    12.000000000000
         C            0.590347708255    -1.041365625876     0.604391907282    12.000000000000
         C           -0.710029199797    -1.271657609635    -0.167408038222    12.000000000000
         C           -1.414890149564    -0.019135698570    -0.683009001402    12.000000000000
         C           -1.871734116927     0.915773235049     0.430141919567    12.000000000000
         H            1.863260617518     1.454771196568     0.942340882893     1.007825032230
         H            0.825818691168     1.609598185616    -0.467695016640     1.007825032230
         H            2.572549567137     1.566358188594    -0.664407002656     1.007825032230
         H            2.670594560317    -0.753519646550     0.133259940379     1.007825032230
         H            1.616294635030    -0.666672652765    -1.254172961056     1.007825032230
         H            0.397246721691    -0.457710667292     1.507781842870     1.007825032230
         H            0.938782683261    -2.016776556585     0.948338882736     1.007825032230
         H           -1.405775149896    -1.819907570570     0.473827916138     1.007825032230
         H           -0.490363215086    -1.927689563074    -1.013658978062     1.007825032230
         H           -2.284500087528    -0.329429676814    -1.265393960080     1.007825032230
         H           -0.764145195585     0.513993263280    -1.378031952023     1.007825032230
         H           -2.420786078204     1.767410174409     0.030880947741     1.007825032230
         H           -1.030691176739     1.304209207562     1.001727878996     1.007825032230
         H           -2.528783070647     0.390984272204     1.124470870152     1.007825032230

  Running in c1 symmetry.

  Rotational constants: A =      0.15098  B =      0.07754  C =      0.06111 [cm^-1]
  Rotational constants: A =   4526.13991  B =   2324.54909  C =   1831.88287 [MHz]
  Nuclear repulsion =  258.707442963342942

  Charge       = 0
  Multiplicity = 1
  Electrons    = 50
  Nalpha       = 25
  Nbeta        = 25

  ==> Algorithm <==

  SCF Algorithm Type is DF.
  DIIS enabled.
  MOM disabled.
  Fractional occupation disabled.
  Guess Type is SAD.
  Energy threshold   = 1.00e-08
  Density threshold  = 1.00e-06
  Integral threshold = 1.00e-12

  ==> Primary Basis <==

  Basis Set: DEF2-SVP
    Blend: DEF2-SVP
    Number of shells: 78
    Number of basis functions: 154
    Number of Cartesian functions: 160
    Spherical Harmonics?: true
    Max angular momentum: 2

  ==> DFT Potential <==

   => LibXC <=

    Version 7.1.2
    S. Lehtola, C. Steigemann, M. J. T. Oliveira, and M. A. L. Marques,  SoftwareX 7, 1–5 (2018) (10.1016/j.softx.2017.11.002)

   => Composite Functional: B3LYP-D3BJ2B <= 

    B3LYP-d3bj2b Hyb-GGA Exchange-Correlation Functional

    P. J. Stephens, F. J. Devlin, C. F. Chabalowski, and M. J. Frisch,  J. Phys. Chem. 98, 11623 (1994) (10.1021/j100096a001)

    Deriv               =              1
    GGA                 =           TRUE
    Meta                =          FALSE

    Exchange Hybrid     =           TRUE
    MP2 Hybrid          =          FALSE

   => Exchange Functionals <=

    0.0800   Slater exchange
    0.7200         Becke 88

   => Exact (HF) Exchange <=

    0.2000               HF 

   => Correlation Functionals <=

    0.1900   Vosko, Wilk & Nusair (VWN5_RPA)
    0.8100   Lee, Yang & Parr

   => LibXC Density Thresholds  <==

    XC_HYB_GGA_XC_B3LYP:  1.00E-15 

   => Molecular Quadrature <=

    Radial Scheme          =       TREUTLER
    Pruning Scheme         =           NONE
    Nuclear Scheme         =       TREUTLER

    Blocking Scheme        =         OCTREE
    BS radius alpha        =              1
    Pruning alpha          =              1
    Radial Points          =             75
    Spherical Points       =            302
    Total Points           =         419626
    Total Blocks           =           3074
    Max Points             =            256
    Max Functions          =            153
    Weights Tolerance      =       1.00E-15

   => Loading Basis Set <=

    Name: (DEF2-SVP AUX)
    Role: JKFIT
    Keyword: DF_BASIS_SCF
    atoms 1-6  entry C          line   198 file /Users/hoyoun/micromamba/envs/psi4env/share/psi4/basis/def2-universal-jkfit.gbs 
    atoms 7-20 entry H          line    18 file /Users/hoyoun/micromamba/envs/psi4env/share/psi4/basis/def2-universal-jkfit.gbs 

  ==> Integral Setup <==

  DFHelper Memory: AOs need 0.131 GiB; user supplied 0.687 GiB. 
  SCF_SUBTYPE=INCORE selected. In-core MEM_DF algorithm will be used.
  Using in-core AOs.

  ==> MemDFJK: Density-Fitted J/K Matrices <==

    J tasked:                   Yes
    K tasked:                   Yes
    wK tasked:                   No
    OpenMP threads:               8
    Memory [MiB]:               703
    Algorithm:                 Core
    Schwarz Cutoff:           1E-12
    Mask sparsity (%):       2.2179
    Fitting Condition:        1E-10

   => Auxiliary Basis Set <=

  Basis Set: (DEF2-SVP AUX)
    Blend: DEF2-UNIVERSAL-JKFIT
    Number of shells: 234
    Number of basis functions: 702
    Number of Cartesian functions: 814
    Spherical Harmonics?: true
    Max angular momentum: 4

  Cached 100.0% of DFT collocation blocks in 1.409 [GiB].

  Minimum eigenvalue in the overlap matrix is 2.0788564995E-03.
  Reciprocal condition number of the overlap matrix is 2.8558344997E-04.
    Using symmetric orthogonalization.

  ==> Pre-Iterations <==

  SCF Guess: Superposition of Atomic Densities via on-the-fly atomic UHF (no occupation information).

   -------------------------
    Irrep   Nso     Nmo    
   -------------------------
     A        154     154 
   -------------------------
    Total     154     154
   -------------------------

  ==> Iterations <==

                           Total Energy        Delta E     RMS |[F,P]|

   @DF-RKS iter SAD:  -236.22752795434883   -2.36228e+02   0.00000e+00 
   @DF-RKS iter   1:  -236.24362476367261   -1.60968e-02   7.16328e-03 DIIS/ADIIS
   @DF-RKS iter   2:  -235.79216585904047    4.51459e-01   9.21899e-03 DIIS/ADIIS
   @DF-RKS iter   3:  -236.92775016523490   -1.13558e+00   6.02254e-04 DIIS/ADIIS
   @DF-RKS iter   4:  -236.93109952161419   -3.34936e-03   2.80112e-04 DIIS/ADIIS
   @DF-RKS iter   5:  -236.93197433235241   -8.74811e-04   7.64042e-05 DIIS
   @DF-RKS iter   6:  -236.93204295856486   -6.86262e-05   1.16754e-05 DIIS
   @DF-RKS iter   7:  -236.93204469165019   -1.73309e-06   2.90741e-06 DIIS
   @DF-RKS iter   8:  -236.93204478355645   -9.19063e-08   1.04011e-06 DIIS
   @DF-RKS iter   9:  -236.93204479622466   -1.26682e-08   1.03338e-07 DIIS
   @DF-RKS iter  10:  -236.93204479635983   -1.35174e-10   1.96501e-08 DIIS
  Energy and wave function converged.


  ==> Post-Iterations <==

   Electrons on quadrature grid:
      Ntotal   =   49.9999069514 ; deviation = -9.305e-05 

    Orbital Energies [Eh]
    ---------------------

    Doubly Occupied:                                                      

       1A    -10.175303     2A    -10.174701     3A    -10.173136  
       4A    -10.172463     5A    -10.170691     6A    -10.170479  
       7A     -0.801093     8A     -0.755010     9A     -0.701995  
      10A     -0.640390    11A     -0.590713    12A     -0.545950  
      13A     -0.474699    14A     -0.458732    15A     -0.428842  
      16A     -0.421499    17A     -0.400203    18A     -0.387829  
      19A     -0.381729    20A     -0.349006    21A     -0.343943  
      22A     -0.341548    23A     -0.316428    24A     -0.310829  
      25A     -0.307910  

    Virtual:                                                              

      26A      0.053532    27A      0.079600    28A      0.083272  
      29A      0.086197    30A      0.116616    31A      0.126315  
      32A      0.130514    33A      0.138318    34A      0.143043  
      35A      0.157495    36A      0.162434    37A      0.170059  
      38A      0.177197    39A      0.205507    40A      0.215750  
      41A      0.231906    42A      0.245044    43A      0.269915  
      44A      0.293484    45A      0.394588    46A      0.420783  
      47A      0.425205    48A      0.436521    49A      0.446955  
      50A      0.457164    51A      0.466312    52A      0.546350  
      53A      0.553097    54A      0.600726    55A      0.609678  
      56A      0.621040    57A      0.635635    58A      0.637578  
      59A      0.646368    60A      0.653790    61A      0.664718  
      62A      0.671089    63A      0.678392    64A      0.682915  
      65A      0.689506    66A      0.693383    67A      0.704533  
      68A      0.714738    69A      0.717496    70A      0.727040  
      71A      0.733742    72A      0.749820    73A      0.756958  
      74A      0.760264    75A      0.771783    76A      0.818557  
      77A      0.875685    78A      0.900105    79A      1.024160  
      80A      1.031574    81A      1.053937    82A      1.138795  
      83A      1.158848    84A      1.197723    85A      1.268188  
      86A      1.270291    87A      1.311553    88A      1.327940  
      89A      1.382571    90A      1.395025    91A      1.527638  
      92A      1.550968    93A      1.559809    94A      1.566907  
      95A      1.592432    96A      1.684175    97A      1.722093  
      98A      1.735451    99A      1.754686   100A      1.771305  
     101A      1.775020   102A      1.789985   103A      1.799585  
     104A      1.813574   105A      1.824567   106A      1.833588  
     107A      1.837389   108A      1.846178   109A      1.857392  
     110A      1.862584   111A      1.895339   112A      1.901596  
     113A      1.910452   114A      1.932643   115A      1.942692  
     116A      1.962930   117A      1.971333   118A      1.981847  
     119A      2.020496   120A      2.032719   121A      2.105644  
     122A      2.144462   123A      2.170002   124A      2.221456  
     125A      2.258002   126A      2.291289   127A      2.318015  
     128A      2.341535   129A      2.401577   130A      2.425604  
     131A      2.430588   132A      2.490332   133A      2.499710  
     134A      2.538576   135A      2.583141   136A      2.598247  
     137A      2.608350   138A      2.630476   139A      2.644485  
     140A      2.673209   141A      2.738768   142A      2.819017  
     143A      2.887555   144A      2.894067   145A      2.929968  
     146A      2.945934   147A      2.967766   148A      2.985932  
     149A      3.001033   150A      3.029327   151A      3.058774  
     152A      3.087111   153A      3.119926   154A      3.138295  

    Final Occupation by Irrep:
              A 
    DOCC [    25 ]
    NA   [    25 ]
    NB   [    25 ]

  @DF-RKS Final Energy:  -236.93204479635983

   => Energetics <=

    Nuclear Repulsion Energy =            258.7074429633429418
    One-Electron Energy =                -829.2328484424499493
    Two-Electron Energy =                 364.2313200374589996
    DFT Exchange-Correlation Energy =     -30.6109724776690086
    Empirical Dispersion Energy =          -0.0269868770428052
    VV10 Nonlocal Energy =                  0.0000000000000000
    Total Energy =                       -236.9320447963598326

Computation Completed


Properties will be evaluated at   0.000000,   0.000000,   0.000000 [a0]

Properties computed using the SCF density matrix


 Multipole Moments:

 ------------------------------------------------------------------------------------
     Multipole            Electronic (a.u.)      Nuclear  (a.u.)        Total (a.u.)
 ------------------------------------------------------------------------------------

 L = 1.  Multiply by 2.5417464519 to convert [e a0] to [Debye]
 Dipole X            :         -0.3711366            0.3826364            0.0114999
 Dipole Y            :          5.9853174           -6.0057212           -0.0204038
 Dipole Z            :          1.1146207           -1.1269315           -0.0123108
 Magnitude           :                                                    0.0264597

 ------------------------------------------------------------------------------------

*** tstop() called on choehoyun-ui-MacBookAir.local at Mon Aug 10 18:10:17 2026
Module time:
	user time   =      17.83 seconds =       0.30 minutes
	system time =       0.51 seconds =       0.01 minutes
	total time  =          4 seconds =       0.07 minutes
Total time:
	user time   =      17.83 seconds =       0.30 minutes
	system time =       0.51 seconds =       0.01 minutes
	total time  =          4 seconds =       0.07 minutes

    Psi4 stopped on: Monday, 10 August 2026 06:10PM
    Psi4 wall time for execution: 0:00:03.30

*** Psi4 exiting successfully. Buy a developer a beer!
