
    -----------------------------------------------------------------------
          Psi4: An Open-Source Ab Initio Electronic Structure Package
                               Psi4 1.11 release

                         Git: Rev {} zzzzzzz 


    D. G. A. Smith, L. A. Burns, A. C. Simmonett, R. M. Parrish,
    M. C. Schieber, R. Galvelis, P. Kraus, H. Kruse, R. Di Remigio,
    A. Alenaizan, A. M. James, S. Lehtola, J. P. Misiewicz, M. Scheurer,
    R. A. Shaw, J. B. Schriber, Y. Xie, Z. L. Glick, D. A. Sirianni,
    J. S. O'Brien, J. M. Waldrop, A. Kumar, E. G. Hohenstein,
    B. P. Pritchard, B. R. Brooks, H. F. Schaefer III, A. Yu. Sokolov,
    K. Patkowski, A. E. DePrince III, U. Bozkaya, R. A. King,
    F. A. Evangelista, J. M. Turney, T. D. Crawford, C. D. Sherrill,
    J. Chem. Phys. 152(18) 184108 (2020). https://doi.org/10.1063/5.0006002

                            Additional Code Authors
    E. T. Seidl, C. L. Janssen, E. F. Valeev, M. L. Leininger,
    J. F. Gonthier, R. M. Richard, H. R. McAlexander, M. Saitow, X. Wang,
    P. Verma, M. H. Lechner, A. Jiang, S. Behnle, A. G. Heide,
    M. F. Herbst, D. L. Poole, T. Győri, E. C. Mitchell, J. P. Pederson,
    and A. M. Wallace

             Previous Authors, Complete List of Code Contributors,
                       and Citations for Specific Modules
    https://github.com/psi4/psi4/blob/master/codemeta.json
    https://github.com/psi4/psi4/graphs/contributors
    https://psicode.org/psi4manual/master/introduction.html#citing-psifour

    -----------------------------------------------------------------------


    Psi4 started on: Sunday, 09 August 2026 01:36AM

    Process ID: 43154
    Host:       choehoyun-ui-MacBookAir.local
    PSIDATADIR: /Users/hoyoun/micromamba/envs/psi4env/share/psi4
    Memory:     500.0 MiB
    Threads:    2
    Addons:     a̶d̶c̶c̶, a̶m̶b̶i̶t̶, b̶s̶e̶, c̶c̶t̶3̶, c̶f̶o̶u̶r̶, c̶h̶e̶m̶p̶s̶2̶, c̶p̶p̶e̶, d̶d̶x̶, dftd3,
                d̶f̶t̶d̶4̶, dkh, ecpint, einsums, f̶o̶r̶t̶e̶, gauxc, g̶c̶p̶, g̶d̶m̶a̶,
                g̶e̶o̶m̶e̶t̶r̶i̶c̶, g̶p̶u̶_̶d̶f̶c̶c̶, i̶n̶t̶e̶g̶r̶a̶t̶o̶r̶x̶x̶, i̶p̶i̶,
                l̶i̶b̶e̶f̶p̶, m̶d̶i̶, m̶p̶2̶d̶, m̶r̶c̶c̶, ooo, o̶p̶e̶n̶f̶e̶r̶m̶i̶o̶n̶p̶s̶i̶4̶,
                pcmsolver, p̶s̶i̶4̶f̶o̶c̶k̶c̶i̶, p̶s̶i̶x̶a̶s̶, p̶y̶e̶i̶n̶s̶u̶m̶s̶, r̶e̶s̶p̶,
                s̶i̶m̶i̶n̶t̶, s̶n̶s̶m̶p̶2̶, v̶2̶r̶d̶m̶_̶c̶a̶s̶s̶c̶f̶

  ==> Input File <==

--------------------------------------------------------------------------
memory 6 GB
molecule mol {
0 1
C -1.97658210985480 1.06208392483494 -0.04714969647673
C -1.92425511351830 -0.45877296736538 -0.12792669109581
C -0.52208921313831 -1.02742592717766 -0.34070967576284
C 0.46474571690985 -0.67903195176377 0.78337924449097
C 1.36891565282751 0.51772396304068 0.48269526568736
C 2.43708457725588 0.19433298641292 -0.55565466049262
H -1.55400513978704 1.51459789226065 -0.94474763297173
H -1.41801714943652 1.43623789814788 0.80945324238836
H -3.00309903668705 1.41228889971347 0.05169829613253
H -2.56996606766256 -0.79655494364420 -0.94076463305341
H -2.33763508420421 -0.88283993747247 0.79039024403602
H -0.13275624027285 -0.67100195217690 -1.29779660779818
H -0.60559020671837 -2.11117985020254 -0.43411966925354
H 1.10683867164619 -1.53805389089585 0.99101322958963
H -0.09932224305133 -0.49482696487980 1.70135917893698
H 1.85653261805579 0.83972194045776 1.40471220046935
H 0.76753369530800 1.35994090350853 0.13912729012666
H 3.06362853226302 1.06007592486576 -0.76485864558300
H 1.99492860866661 -0.12764599089641 -1.49760159386505
H 3.08310953139848 -0.60966995676763 -0.20249868550495
units angstrom
no_reorient
no_com
}
set basis def2-TZVP
set scf_type df
set freeze_core true
energy('b3lyp-d3bj')
--------------------------------------------------------------------------

  Memory set to   5.588 GiB by Python driver.

Scratch directory: /tmp/
   => Libint2 <=

    Primary   basis highest AM E, G, H:  7, 6, 3
    Auxiliary basis highest AM E, G, H:  7, 7, 4
    Onebody   basis highest AM E, G, H:  -, -, -
    Solid Harmonics ordering:            Gaussian

*** tstart() called on choehoyun-ui-MacBookAir.local
*** at Sun Aug  9 01:36:05 2026

   => Loading Basis Set <=

    Name: DEF2-TZVP
    Role: ORBITAL
    Keyword: BASIS
    atoms 1-6  entry C          line   123 file /Users/hoyoun/micromamba/envs/psi4env/share/psi4/basis/def2-tzvp.gbs 
    atoms 7-20 entry H          line    15 file /Users/hoyoun/micromamba/envs/psi4env/share/psi4/basis/def2-tzvp.gbs 

   => B3LYP-D3(BJ): Empirical Dispersion <=

    Grimme's -D3 (BJ-damping) Dispersion Correction
    Grimme S.; Ehrlich S.; Goerigk L. (2011), J. Comput. Chem., 32: 1456

        s6 =       1.000000
        s8 =       1.988900
        a1 =       0.398100
        a2 =       4.421100


         ---------------------------------------------------------
                                   SCF
               by Justin Turney, Rob Parrish, Andy Simmonett
                          and Daniel G. A. Smith
                              RKS Reference
                        2 Threads,   5722 MiB Core
         ---------------------------------------------------------

  ==> Geometry <==

    Molecular point group: c1
    Full point group: C1

    Geometry (in Angstrom), charge = 0, multiplicity = 1:

       Center              X                  Y                   Z               Mass       
    ------------   -----------------  -----------------  -----------------  -----------------
         C           -1.976582109855     1.062083924835    -0.047149696477    12.000000000000
         C           -1.924255113518    -0.458772967365    -0.127926691096    12.000000000000
         C           -0.522089213138    -1.027425927178    -0.340709675763    12.000000000000
         C            0.464745716910    -0.679031951764     0.783379244491    12.000000000000
         C            1.368915652828     0.517723963041     0.482695265687    12.000000000000
         C            2.437084577256     0.194332986413    -0.555654660493    12.000000000000
         H           -1.554005139787     1.514597892261    -0.944747632972     1.007825032230
         H           -1.418017149437     1.436237898148     0.809453242388     1.007825032230
         H           -3.003099036687     1.412288899713     0.051698296133     1.007825032230
         H           -2.569966067663    -0.796554943644    -0.940764633053     1.007825032230
         H           -2.337635084204    -0.882839937472     0.790390244036     1.007825032230
         H           -0.132756240273    -0.671001952177    -1.297796607798     1.007825032230
         H           -0.605590206718    -2.111179850203    -0.434119669254     1.007825032230
         H            1.106838671646    -1.538053890896     0.991013229590     1.007825032230
         H           -0.099322243051    -0.494826964880     1.701359178937     1.007825032230
         H            1.856532618056     0.839721940458     1.404712200469     1.007825032230
         H            0.767533695308     1.359940903509     0.139127290127     1.007825032230
         H            3.063628532263     1.060075924866    -0.764858645583     1.007825032230
         H            1.994928608667    -0.127645990896    -1.497601593865     1.007825032230
         H            3.083109531398    -0.609669956768    -0.202498685505     1.007825032230

  Running in c1 symmetry.

  Rotational constants: A =      0.19448  B =      0.06138  C =      0.05566 [cm^-1]
  Rotational constants: A =   5830.44562  B =   1839.98255  C =   1668.79333 [MHz]
  Nuclear repulsion =  255.804006714633204

  Charge       = 0
  Multiplicity = 1
  Electrons    = 50
  Nalpha       = 25
  Nbeta        = 25

  ==> Algorithm <==

  SCF Algorithm Type is DF.
  DIIS enabled.
  MOM disabled.
  Fractional occupation disabled.
  Guess Type is SAD.
  Energy threshold   = 1.00e-06
  Density threshold  = 1.00e-06
  Integral threshold = 1.00e-12

  ==> Primary Basis <==

  Basis Set: DEF2-TZVP
    Blend: DEF2-TZVP
    Number of shells: 122
    Number of basis functions: 270
    Number of Cartesian functions: 300
    Spherical Harmonics?: true
    Max angular momentum: 3

  ==> DFT Potential <==

   => LibXC <=

    Version 7.1.2
    S. Lehtola, C. Steigemann, M. J. T. Oliveira, and M. A. L. Marques,  SoftwareX 7, 1–5 (2018) (10.1016/j.softx.2017.11.002)

   => Composite Functional: B3LYP-D3BJ2B <= 

    B3LYP-d3bj2b Hyb-GGA Exchange-Correlation Functional

    P. J. Stephens, F. J. Devlin, C. F. Chabalowski, and M. J. Frisch,  J. Phys. Chem. 98, 11623 (1994) (10.1021/j100096a001)

    Deriv               =              1
    GGA                 =           TRUE
    Meta                =          FALSE

    Exchange Hybrid     =           TRUE
    MP2 Hybrid          =          FALSE

   => Exchange Functionals <=

    0.0800   Slater exchange
    0.7200         Becke 88

   => Exact (HF) Exchange <=

    0.2000               HF 

   => Correlation Functionals <=

    0.1900   Vosko, Wilk & Nusair (VWN5_RPA)
    0.8100   Lee, Yang & Parr

   => LibXC Density Thresholds  <==

    XC_HYB_GGA_XC_B3LYP:  1.00E-15 

   => Molecular Quadrature <=

    Radial Scheme          =       TREUTLER
    Pruning Scheme         =           NONE
    Nuclear Scheme         =       TREUTLER

    Blocking Scheme        =         OCTREE
    BS radius alpha        =              1
    Pruning alpha          =              1
    Radial Points          =             75
    Spherical Points       =            302
    Total Points           =         420950
    Total Blocks           =           3111
    Max Points             =            256
    Max Functions          =            261
    Weights Tolerance      =       1.00E-15

   => Loading Basis Set <=

    Name: (DEF2-TZVP AUX)
    Role: JKFIT
    Keyword: DF_BASIS_SCF
    atoms 1-6  entry C          line   198 file /Users/hoyoun/micromamba/envs/psi4env/share/psi4/basis/def2-universal-jkfit.gbs 
    atoms 7-20 entry H          line    18 file /Users/hoyoun/micromamba/envs/psi4env/share/psi4/basis/def2-universal-jkfit.gbs 

  ==> Integral Setup <==

  DFHelper Memory: AOs need 0.384 GiB; user supplied 1.769 GiB. 
  SCF_SUBTYPE=INCORE selected. In-core MEM_DF algorithm will be used.
  Using in-core AOs.

  ==> MemDFJK: Density-Fitted J/K Matrices <==

    J tasked:                   Yes
    K tasked:                   Yes
    wK tasked:                   No
    OpenMP threads:               2
    Memory [MiB]:              1811
    Algorithm:                 Core
    Schwarz Cutoff:           1E-12
    Mask sparsity (%):       4.2826
    Fitting Condition:        1E-10

   => Auxiliary Basis Set <=

  Basis Set: (DEF2-TZVP AUX)
    Blend: DEF2-UNIVERSAL-JKFIT
    Number of shells: 234
    Number of basis functions: 702
    Number of Cartesian functions: 814
    Spherical Harmonics?: true
    Max angular momentum: 4

  Cached 100.0% of DFT collocation blocks in 2.422 [GiB].

  Minimum eigenvalue in the overlap matrix is 1.7525651898E-04.
  Reciprocal condition number of the overlap matrix is 1.6649620068E-05.
    Using symmetric orthogonalization.

  ==> Pre-Iterations <==

  SCF Guess: Superposition of Atomic Densities via on-the-fly atomic UHF (no occupation information).

   -------------------------
    Irrep   Nso     Nmo    
   -------------------------
     A        270     270 
   -------------------------
    Total     270     270
   -------------------------

  ==> Iterations <==

                           Total Energy        Delta E     RMS |[F,P]|

   @DF-RKS iter SAD:  -236.39814785090994   -2.36398e+02   0.00000e+00 
   @DF-RKS iter   1:  -236.27442036869104    1.23727e-01   4.95202e-03 DIIS/ADIIS
   @DF-RKS iter   2:  -235.33590303291865    9.38517e-01   6.78050e-03 DIIS/ADIIS
   @DF-RKS iter   3:  -237.18428614406014   -1.84838e+00   5.49378e-04 DIIS/ADIIS
   @DF-RKS iter   4:  -237.19202938606952   -7.74324e-03   3.13526e-04 DIIS/ADIIS
   @DF-RKS iter   5:  -237.19538269190414   -3.35331e-03   7.33238e-05 DIIS
   @DF-RKS iter   6:  -237.19556449810332   -1.81806e-04   1.34165e-05 DIIS
   @DF-RKS iter   7:  -237.19557111813972   -6.62004e-06   3.71787e-06 DIIS
   @DF-RKS iter   8:  -237.19557158755697   -4.69417e-07   1.06201e-06 DIIS
   @DF-RKS iter   9:  -237.19557162482531   -3.72683e-08   2.21635e-07 DIIS
  Energy and wave function converged.


  ==> Post-Iterations <==

   Electrons on quadrature grid:
      Ntotal   =   49.9999732189 ; deviation = -2.678e-05 

    Orbital Energies [Eh]
    ---------------------

    Doubly Occupied:                                                      

       1A    -10.161428     2A    -10.160319     3A    -10.159133  
       4A    -10.158807     5A    -10.154771     6A    -10.154033  
       7A     -0.809578     8A     -0.765891     9A     -0.705678  
      10A     -0.652484    11A     -0.591747    12A     -0.559016  
      13A     -0.471996    14A     -0.460548    15A     -0.439794  
      16A     -0.425394    17A     -0.394235    18A     -0.393344  
      19A     -0.376486    20A     -0.355233    21A     -0.350062  
      22A     -0.338130    23A     -0.319217    24A     -0.313476  
      25A     -0.309100  

    Virtual:                                                              

      26A      0.033644    27A      0.055531    28A      0.057399  
      29A      0.061925    30A      0.087623    31A      0.098599  
      32A      0.100637    33A      0.104173    34A      0.109988  
      35A      0.122029    36A      0.133851    37A      0.137362  
      38A      0.151203    39A      0.158677    40A      0.171977  
      41A      0.180586    42A      0.203795    43A      0.217703  
      44A      0.220924    45A      0.230475    46A      0.232109  
      47A      0.239936    48A      0.246850    49A      0.257317  
      50A      0.273286    51A      0.285642    52A      0.309352  
      53A      0.324224    54A      0.340736    55A      0.381617  
      56A      0.390150    57A      0.402346    58A      0.407197  
      59A      0.418518    60A      0.421614    61A      0.425709  
      62A      0.433426    63A      0.436280    64A      0.444807  
      65A      0.449054    66A      0.452895    67A      0.462708  
      68A      0.464492    69A      0.466485    70A      0.480278  
      71A      0.480925    72A      0.502323    73A      0.515620  
      74A      0.531857    75A      0.538290    76A      0.570320  
      77A      0.589838    78A      0.618408    79A      0.630242  
      80A      0.637482    81A      0.641604    82A      0.692455  
      83A      0.714900    84A      0.749387    85A      0.806647  
      86A      0.827791    87A      0.845498    88A      0.869610  
      89A      0.873155    90A      0.903816    91A      0.910511  
      92A      0.919526    93A      0.935492    94A      0.966264  
      95A      1.013832    96A      1.028817    97A      1.036455  
      98A      1.042288    99A      1.069523   100A      1.081806  
     101A      1.096288   102A      1.121017   103A      1.137039  
     104A      1.153128   105A      1.169478   106A      1.188187  
     107A      1.200462   108A      1.212716   109A      1.241486  
     110A      1.270017   111A      1.296961   112A      1.318543  
     113A      1.480858   114A      1.492785   115A      1.517554  
     116A      1.525457   117A      1.536639   118A      1.540669  
     119A      1.553393   120A      1.561471   121A      1.570139  
     122A      1.574571   123A      1.596321   124A      1.616326  
     125A      1.622067   126A      1.629507   127A      1.648152  
     128A      1.665672   129A      1.677970   130A      1.723214  
     131A      1.737846   132A      1.744103   133A      1.779432  
     134A      1.783689   135A      1.797559   136A      1.825249  
     137A      1.851924   138A      1.875229   139A      1.912468  
     140A      1.924245   141A      1.945638   142A      1.978420  
     143A      1.984836   144A      2.003643   145A      2.026263  
     146A      2.036986   147A      2.081208   148A      2.133098  
     149A      2.152025   150A      2.184154   151A      2.216343  
     152A      2.222588   153A      2.250716   154A      2.283954  
     155A      2.309585   156A      2.326447   157A      2.346544  
     158A      2.352465   159A      2.366725   160A      2.383627  
     161A      2.408692   162A      2.417719   163A      2.451704  
     164A      2.455281   165A      2.485120   166A      2.492918  
     167A      2.518430   168A      2.541827   169A      2.557056  
     170A      2.563552   171A      2.590811   172A      2.597744  
     173A      2.620062   174A      2.624101   175A      2.637203  
     176A      2.647885   177A      2.661594   178A      2.677215  
     179A      2.688952   180A      2.700028   181A      2.714394  
     182A      2.730403   183A      2.752204   184A      2.755146  
     185A      2.776452   186A      2.791833   187A      2.802682  
     188A      2.847053   189A      2.853867   190A      2.872677  
     191A      2.964147   192A      2.985689   193A      3.009231  
     194A      3.058518   195A      3.074428   196A      3.081460  
     197A      3.098995   198A      3.116813   199A      3.132577  
     200A      3.138951   201A      3.157248   202A      3.184203  
     203A      3.186158   204A      3.214375   205A      3.225708  
     206A      3.247367   207A      3.257924   208A      3.277430  
     209A      3.294061   210A      3.317971   211A      3.325123  
     212A      3.360116   213A      3.380108   214A      3.387674  
     215A      3.406384   216A      3.410244   217A      3.449334  
     218A      3.467960   219A      3.487025   220A      3.507135  
     221A      3.544553   222A      3.553757   223A      3.564138  
     224A      3.604923   225A      3.622738   226A      3.635199  
     227A      3.683214   228A      3.729165   229A      3.748205  
     230A      3.774783   231A      3.802827   232A      3.843269  
     233A      3.869624   234A      3.897316   235A      3.921210  
     236A      3.951572   237A      3.961119   238A      4.002346  
     239A      4.020648   240A      4.034247   241A      4.058470  
     242A      4.077383   243A      4.106679   244A      4.154013  
     245A      4.272472   246A      4.283900   247A      4.314665  
     248A      4.345130   249A      4.371476   250A      4.421441  
     251A      4.452539   252A      4.485226   253A      4.518175  
     254A      4.579048   255A      4.600034   256A      4.626086  
     257A      4.642042   258A      4.694439   259A      4.764462  
     260A      4.821722   261A      4.848924   262A      4.915303  
     263A      4.926887   264A      4.972686   265A     22.321091  
     266A     22.339549   267A     22.449004   268A     22.473939  
     269A     22.509473   270A     22.516276  

    Final Occupation by Irrep:
              A 
    DOCC [    25 ]
    NA   [    25 ]
    NB   [    25 ]

  @DF-RKS Final Energy:  -237.19557162482531

   => Energetics <=

    Nuclear Repulsion Energy =            255.8040067146332035
    One-Electron Energy =                -823.9209119635917205
    Two-Electron Energy =                 361.6379223077856864
    DFT Exchange-Correlation Energy =     -30.6902786454504266
    Empirical Dispersion Energy =          -0.0263100382019696
    VV10 Nonlocal Energy =                  0.0000000000000000
    Total Energy =                       -237.1955716248252770

Computation Completed


Properties will be evaluated at   0.000000,   0.000000,   0.000000 [a0]

Properties computed using the SCF density matrix


 Multipole Moments:

 ------------------------------------------------------------------------------------
     Multipole            Electronic (a.u.)      Nuclear  (a.u.)        Total (a.u.)
 ------------------------------------------------------------------------------------

 L = 1.  Multiply by 2.5417464519 to convert [e a0] to [Debye]
 Dipole X            :          1.4112657           -1.4378972           -0.0266315
 Dipole Y            :          3.6777462           -3.6952647           -0.0175185
 Dipole Z            :         -1.8215811            1.8390228            0.0174417
 Magnitude           :                                                    0.0363366

 ------------------------------------------------------------------------------------

*** tstop() called on choehoyun-ui-MacBookAir.local at Sun Aug  9 01:44:14 2026
Module time:
	user time   =      68.53 seconds =       1.14 minutes
	system time =      25.66 seconds =       0.43 minutes
	total time  =        489 seconds =       8.15 minutes
Total time:
	user time   =      68.53 seconds =       1.14 minutes
	system time =      25.66 seconds =       0.43 minutes
	total time  =        489 seconds =       8.15 minutes

    Psi4 stopped on: Sunday, 09 August 2026 01:44AM
    Psi4 wall time for execution: 0:08:09.46

*** Psi4 exiting successfully. Buy a developer a beer!
