
    -----------------------------------------------------------------------
          Psi4: An Open-Source Ab Initio Electronic Structure Package
                               Psi4 1.11 release

                         Git: Rev {} zzzzzzz 


    D. G. A. Smith, L. A. Burns, A. C. Simmonett, R. M. Parrish,
    M. C. Schieber, R. Galvelis, P. Kraus, H. Kruse, R. Di Remigio,
    A. Alenaizan, A. M. James, S. Lehtola, J. P. Misiewicz, M. Scheurer,
    R. A. Shaw, J. B. Schriber, Y. Xie, Z. L. Glick, D. A. Sirianni,
    J. S. O'Brien, J. M. Waldrop, A. Kumar, E. G. Hohenstein,
    B. P. Pritchard, B. R. Brooks, H. F. Schaefer III, A. Yu. Sokolov,
    K. Patkowski, A. E. DePrince III, U. Bozkaya, R. A. King,
    F. A. Evangelista, J. M. Turney, T. D. Crawford, C. D. Sherrill,
    J. Chem. Phys. 152(18) 184108 (2020). https://doi.org/10.1063/5.0006002

                            Additional Code Authors
    E. T. Seidl, C. L. Janssen, E. F. Valeev, M. L. Leininger,
    J. F. Gonthier, R. M. Richard, H. R. McAlexander, M. Saitow, X. Wang,
    P. Verma, M. H. Lechner, A. Jiang, S. Behnle, A. G. Heide,
    M. F. Herbst, D. L. Poole, T. Győri, E. C. Mitchell, J. P. Pederson,
    and A. M. Wallace

             Previous Authors, Complete List of Code Contributors,
                       and Citations for Specific Modules
    https://github.com/psi4/psi4/blob/master/codemeta.json
    https://github.com/psi4/psi4/graphs/contributors
    https://psicode.org/psi4manual/master/introduction.html#citing-psifour

    -----------------------------------------------------------------------


    Psi4 started on: Monday, 10 August 2026 06:39PM

    Process ID: 76087
    Host:       choehoyun-ui-MacBookAir.local
    PSIDATADIR: /Users/hoyoun/micromamba/envs/psi4env/share/psi4
    Memory:     500.0 MiB
    Threads:    8
    Addons:     a̶d̶c̶c̶, a̶m̶b̶i̶t̶, b̶s̶e̶, c̶c̶t̶3̶, c̶f̶o̶u̶r̶, c̶h̶e̶m̶p̶s̶2̶, c̶p̶p̶e̶, d̶d̶x̶, dftd3,
                d̶f̶t̶d̶4̶, dkh, ecpint, einsums, f̶o̶r̶t̶e̶, gauxc, g̶c̶p̶, g̶d̶m̶a̶,
                g̶e̶o̶m̶e̶t̶r̶i̶c̶, g̶p̶u̶_̶d̶f̶c̶c̶, i̶n̶t̶e̶g̶r̶a̶t̶o̶r̶x̶x̶, i̶p̶i̶,
                l̶i̶b̶e̶f̶p̶, m̶d̶i̶, m̶p̶2̶d̶, m̶r̶c̶c̶, ooo, o̶p̶e̶n̶f̶e̶r̶m̶i̶o̶n̶p̶s̶i̶4̶,
                pcmsolver, p̶s̶i̶4̶f̶o̶c̶k̶c̶i̶, p̶s̶i̶x̶a̶s̶, p̶y̶e̶i̶n̶s̶u̶m̶s̶, r̶e̶s̶p̶,
                s̶i̶m̶i̶n̶t̶, s̶n̶s̶m̶p̶2̶, v̶2̶r̶d̶m̶_̶c̶a̶s̶s̶c̶f̶

  ==> Input File <==

--------------------------------------------------------------------------
memory 3 GB
molecule mol {
0 1
C 0.87567614821554 -2.05068554860606 0.37030312210642
C 1.08521364424372 -0.61438316204483 -0.04015326654009
C 0.00000000000000 0.00000000000000 -0.93355012045149
C -1.08521364424372 0.61438316204483 -0.04015326654009
C -0.87567614821554 2.05068554860606 0.37030312210642
O 2.03248017733388 0.04443689894611 0.32436804623410
O -2.03248017733388 -0.04443689894611 0.32436804623410
H 0.99417781505717 -2.69845576229564 -0.50399304186553
H -0.14399547750699 -2.19610089859310 0.73634042236219
H 1.60057300051910 -2.33435952822246 1.13093984056596
H 0.46793445495899 0.76847201237803 -1.55103006263731
H -0.46793445495899 -0.76847201237803 -1.55103006263731
H -0.99417781505717 2.69845576229564 -0.50399304186553
H 0.14399547750699 2.19610089859310 0.73634042236219
H -1.60057300051910 2.33435952822246 1.13093984056596
units angstrom
no_reorient
no_com
}
set basis def2-SVP
set scf_type df
set freeze_core true
set e_convergence 8
energy('b3lyp-d3bj')
--------------------------------------------------------------------------

  Memory set to   2.794 GiB by Python driver.

Scratch directory: /Users/hoyoun/Documents/Yonsei_AX_Camp/(진짜_이게_최종)/calibration/dft_work/_scratch/P32/
   => Libint2 <=

    Primary   basis highest AM E, G, H:  7, 6, 3
    Auxiliary basis highest AM E, G, H:  7, 7, 4
    Onebody   basis highest AM E, G, H:  -, -, -
    Solid Harmonics ordering:            Gaussian

*** tstart() called on choehoyun-ui-MacBookAir.local
*** at Mon Aug 10 18:39:28 2026

   => Loading Basis Set <=

    Name: DEF2-SVP
    Role: ORBITAL
    Keyword: BASIS
    atoms 1-5  entry C          line    90 file /Users/hoyoun/micromamba/envs/psi4env/share/psi4/basis/def2-svp.gbs 
    atoms 6-7  entry O          line   130 file /Users/hoyoun/micromamba/envs/psi4env/share/psi4/basis/def2-svp.gbs 
    atoms 8-15 entry H          line    15 file /Users/hoyoun/micromamba/envs/psi4env/share/psi4/basis/def2-svp.gbs 

   => B3LYP-D3(BJ): Empirical Dispersion <=

    Grimme's -D3 (BJ-damping) Dispersion Correction
    Grimme S.; Ehrlich S.; Goerigk L. (2011), J. Comput. Chem., 32: 1456

        s6 =       1.000000
        s8 =       1.988900
        a1 =       0.398100
        a2 =       4.421100


         ---------------------------------------------------------
                                   SCF
               by Justin Turney, Rob Parrish, Andy Simmonett
                          and Daniel G. A. Smith
                              RKS Reference
                        8 Threads,   2861 MiB Core
         ---------------------------------------------------------

  ==> Geometry <==

    Molecular point group: c2
    Full point group: C2

    Geometry (in Angstrom), charge = 0, multiplicity = 1:

       Center              X                  Y                   Z               Mass       
    ------------   -----------------  -----------------  -----------------  -----------------
         C            0.875676148216    -2.050685548606     0.370303122106    12.000000000000
         C            1.085213644244    -0.614383162045    -0.040153266540    12.000000000000
         C            0.000000000000     0.000000000000    -0.933550120451    12.000000000000
         C           -1.085213644244     0.614383162045    -0.040153266540    12.000000000000
         C           -0.875676148216     2.050685548606     0.370303122106    12.000000000000
         O            2.032480177334     0.044436898946     0.324368046234    15.994914619570
         O           -2.032480177334    -0.044436898946     0.324368046234    15.994914619570
         H            0.994177815057    -2.698455762296    -0.503993041866     1.007825032230
         H           -0.143995477507    -2.196100898593     0.736340422362     1.007825032230
         H            1.600573000519    -2.334359528222     1.130939840566     1.007825032230
         H            0.467934454959     0.768472012378    -1.551030062637     1.007825032230
         H           -0.467934454959    -0.768472012378    -1.551030062637     1.007825032230
         H           -0.994177815057     2.698455762296    -0.503993041866     1.007825032230
         H            0.143995477507     2.196100898593     0.736340422362     1.007825032230
         H           -1.600573000519     2.334359528222     1.130939840566     1.007825032230

  Running in c2 symmetry.

  Rotational constants: A =      0.13809  B =      0.06401  C =      0.05061 [cm^-1]
  Rotational constants: A =   4139.97058  B =   1918.84328  C =   1517.29606 [MHz]
  Nuclear repulsion =  295.531906465223472

  Charge       = 0
  Multiplicity = 1
  Electrons    = 54
  Nalpha       = 27
  Nbeta        = 27

  ==> Algorithm <==

  SCF Algorithm Type is DF.
  DIIS enabled.
  MOM disabled.
  Fractional occupation disabled.
  Guess Type is SAD.
  Energy threshold   = 1.00e-08
  Density threshold  = 1.00e-06
  Integral threshold = 1.00e-12

  ==> Primary Basis <==

  Basis Set: DEF2-SVP
    Blend: DEF2-SVP
    Number of shells: 66
    Number of basis functions: 138
    Number of Cartesian functions: 145
    Spherical Harmonics?: true
    Max angular momentum: 2

  ==> DFT Potential <==

   => LibXC <=

    Version 7.1.2
    S. Lehtola, C. Steigemann, M. J. T. Oliveira, and M. A. L. Marques,  SoftwareX 7, 1–5 (2018) (10.1016/j.softx.2017.11.002)

   => Composite Functional: B3LYP-D3BJ2B <= 

    B3LYP-d3bj2b Hyb-GGA Exchange-Correlation Functional

    P. J. Stephens, F. J. Devlin, C. F. Chabalowski, and M. J. Frisch,  J. Phys. Chem. 98, 11623 (1994) (10.1021/j100096a001)

    Deriv               =              1
    GGA                 =           TRUE
    Meta                =          FALSE

    Exchange Hybrid     =           TRUE
    MP2 Hybrid          =          FALSE

   => Exchange Functionals <=

    0.0800   Slater exchange
    0.7200         Becke 88

   => Exact (HF) Exchange <=

    0.2000               HF 

   => Correlation Functionals <=

    0.1900   Vosko, Wilk & Nusair (VWN5_RPA)
    0.8100   Lee, Yang & Parr

   => LibXC Density Thresholds  <==

    XC_HYB_GGA_XC_B3LYP:  1.00E-15 

   => Molecular Quadrature <=

    Radial Scheme          =       TREUTLER
    Pruning Scheme         =           NONE
    Nuclear Scheme         =       TREUTLER

    Blocking Scheme        =         OCTREE
    BS radius alpha        =              1
    Pruning alpha          =              1
    Radial Points          =             75
    Spherical Points       =            302
    Total Points           =         317537
    Total Blocks           =           2390
    Max Points             =            256
    Max Functions          =            135
    Weights Tolerance      =       1.00E-15

   => Loading Basis Set <=

    Name: (DEF2-SVP AUX)
    Role: JKFIT
    Keyword: DF_BASIS_SCF
    atoms 1-5  entry C          line   198 file /Users/hoyoun/micromamba/envs/psi4env/share/psi4/basis/def2-universal-jkfit.gbs 
    atoms 6-7  entry O          line   318 file /Users/hoyoun/micromamba/envs/psi4env/share/psi4/basis/def2-universal-jkfit.gbs 
    atoms 8-15 entry H          line    18 file /Users/hoyoun/micromamba/envs/psi4env/share/psi4/basis/def2-universal-jkfit.gbs 

  ==> Integral Setup <==

  DFHelper Memory: AOs need 0.100 GiB; user supplied 1.182 GiB. 
  SCF_SUBTYPE=INCORE selected. In-core MEM_DF algorithm will be used.
  Using in-core AOs.

  ==> MemDFJK: Density-Fitted J/K Matrices <==

    J tasked:                   Yes
    K tasked:                   Yes
    wK tasked:                   No
    OpenMP threads:               8
    Memory [MiB]:              1210
    Algorithm:                 Core
    Schwarz Cutoff:           1E-12
    Mask sparsity (%):       4.3373
    Fitting Condition:        1E-10

   => Auxiliary Basis Set <=

  Basis Set: (DEF2-SVP AUX)
    Blend: DEF2-UNIVERSAL-JKFIT
    Number of shells: 223
    Number of basis functions: 673
    Number of Cartesian functions: 791
    Spherical Harmonics?: true
    Max angular momentum: 4

  Cached 100.0% of DFT collocation blocks in 0.914 [GiB].

  Minimum eigenvalue in the overlap matrix is 2.1695287220E-03.
  Reciprocal condition number of the overlap matrix is 3.8202796344E-04.
    Using symmetric orthogonalization.

  ==> Pre-Iterations <==

  SCF Guess: Superposition of Atomic Densities via on-the-fly atomic UHF (no occupation information).

   -------------------------
    Irrep   Nso     Nmo    
   -------------------------
     A         70      70 
     B         68      68 
   -------------------------
    Total     138     138
   -------------------------

  ==> Iterations <==

                           Total Energy        Delta E     RMS |[F,P]|

   @DF-RKS iter SAD:  -344.76848068800388   -3.44768e+02   0.00000e+00 
   @DF-RKS iter   1:  -345.08168539121840   -3.13205e-01   1.02074e-02 ADIIS/DIIS
   @DF-RKS iter   2:  -344.91549834442236    1.66187e-01   1.21353e-02 ADIIS/DIIS
   @DF-RKS iter   3:  -345.52039395819043   -6.04896e-01   3.17397e-03 ADIIS/DIIS
   @DF-RKS iter   4:  -345.55899795025596   -3.86040e-02   6.22154e-04 ADIIS/DIIS
   @DF-RKS iter   5:  -345.56053608846975   -1.53814e-03   7.12626e-05 DIIS
   @DF-RKS iter   6:  -345.56055831050401   -2.22220e-05   1.83176e-05 DIIS
   @DF-RKS iter   7:  -345.56055964262708   -1.33212e-06   6.85304e-06 DIIS
   @DF-RKS iter   8:  -345.56055985634413   -2.13717e-07   1.39173e-06 DIIS
   @DF-RKS iter   9:  -345.56055986452560   -8.18147e-09   3.28678e-07 DIIS
  Energy and wave function converged.


  ==> Post-Iterations <==

   Electrons on quadrature grid:
      Ntotal   =   54.0000937558 ; deviation = 9.376e-05 

    Orbital Energies [Eh]
    ---------------------

    Doubly Occupied:                                                      

       1B    -19.136124     1A    -19.136110     2B    -10.289932  
       2A    -10.289881     3A    -10.205925     4A    -10.198269  
       3B    -10.198265     5A     -1.047339     4B     -1.041691  
       6A     -0.792169     5B     -0.751212     7A     -0.713453  
       6B     -0.562575     8A     -0.528624     7B     -0.487111  
       9A     -0.484856     8B     -0.470963    10A     -0.440174  
      11A     -0.439419     9B     -0.438813    10B     -0.407919  
      12A     -0.399488    11B     -0.382904    12B     -0.371918  
      13A     -0.366652    14A     -0.269824    13B     -0.256514  

    Virtual:                                                              

      15A     -0.049264    14B     -0.004538    16A      0.053790  
      15B      0.074692    16B      0.108005    17A      0.113964  
      18A      0.123095    19A      0.124692    17B      0.131880  
      18B      0.139361    20A      0.171736    19B      0.207669  
      21A      0.228289    20B      0.263958    21B      0.280972  
      22A      0.322993    22B      0.419428    23A      0.432166  
      24A      0.443264    23B      0.452267    25A      0.477901  
      24B      0.496170    25B      0.524776    26A      0.540599  
      27A      0.572620    28A      0.579406    26B      0.600676  
      29A      0.627149    27B      0.631306    30A      0.638398  
      28B      0.654311    31A      0.657211    29B      0.660728  
      32A      0.663561    30B      0.670565    31B      0.678793  
      33A      0.681235    32B      0.689932    34A      0.695604  
      35A      0.801342    33B      0.826703    34B      0.892768  
      35B      0.896762    36A      0.906916    36B      1.017224  
      37A      1.041025    38A      1.062946    37B      1.083164  
      39A      1.133072    40A      1.160268    38B      1.174616  
      39B      1.289116    41A      1.319870    42A      1.334441  
      40B      1.405230    43A      1.468102    41B      1.510130  
      44A      1.516881    42B      1.552152    43B      1.595422  
      45A      1.597774    44B      1.631721    46A      1.637004  
      45B      1.647277    47A      1.722442    46B      1.745821  
      48A      1.746553    47B      1.762912    48B      1.778924  
      49A      1.786531    49B      1.791644    50A      1.797750  
      51A      1.854848    50B      1.890818    51B      1.949242  
      52A      1.967762    53A      1.986460    52B      1.999443  
      53B      2.039117    54B      2.105961    54A      2.106396  
      55A      2.123592    56A      2.233187    57A      2.320811  
      55B      2.324724    56B      2.392395    58A      2.436204  
      59A      2.448128    57B      2.448513    60A      2.484774  
      58B      2.508927    59B      2.623895    61A      2.642688  
      60B      2.685042    62A      2.693654    61B      2.702801  
      63A      2.714063    64A      2.784223    62B      2.789604  
      65A      2.859977    63B      2.884008    66A      2.924517  
      64B      2.932537    67A      2.978004    65B      3.019214  
      68A      3.156653    66B      3.161710    67B      3.364468  
      69A      3.381918    68B      3.612771    70A      3.613476  

    Final Occupation by Irrep:
              A     B 
    DOCC [    14,   13 ]
    NA   [    14,   13 ]
    NB   [    14,   13 ]

  @DF-RKS Final Energy:  -345.56055986452560

   => Energetics <=

    Nuclear Repulsion Energy =            295.5319064652234715
    One-Electron Energy =               -1054.4651889846761605
    Two-Electron Energy =                 451.6116581265426362
    DFT Exchange-Correlation Energy =     -38.2185651581394623
    Empirical Dispersion Energy =          -0.0203703134761012
    VV10 Nonlocal Energy =                  0.0000000000000000
    Total Energy =                       -345.5605598645256009

Computation Completed


Properties will be evaluated at   0.000000,   0.000000,   0.000000 [a0]

Properties computed using the SCF density matrix


 Multipole Moments:

 ------------------------------------------------------------------------------------
     Multipole            Electronic (a.u.)      Nuclear  (a.u.)        Total (a.u.)
 ------------------------------------------------------------------------------------

 L = 1.  Multiply by 2.5417464519 to convert [e a0] to [Debye]
 Dipole X            :          0.0000000            0.0000000            0.0000000
 Dipole Y            :          0.0000000           -0.0000000           -0.0000000
 Dipole Z            :         -6.5521945            5.9996926           -0.5525019
 Magnitude           :                                                    0.5525019

 ------------------------------------------------------------------------------------

*** tstop() called on choehoyun-ui-MacBookAir.local at Mon Aug 10 18:39:30 2026
Module time:
	user time   =      10.26 seconds =       0.17 minutes
	system time =       0.31 seconds =       0.01 minutes
	total time  =          2 seconds =       0.03 minutes
Total time:
	user time   =      10.26 seconds =       0.17 minutes
	system time =       0.31 seconds =       0.01 minutes
	total time  =          2 seconds =       0.03 minutes

    Psi4 stopped on: Monday, 10 August 2026 06:39PM
    Psi4 wall time for execution: 0:00:02.12

*** Psi4 exiting successfully. Buy a developer a beer!
