
    -----------------------------------------------------------------------
          Psi4: An Open-Source Ab Initio Electronic Structure Package
                               Psi4 1.11 release

                         Git: Rev {} zzzzzzz 


    D. G. A. Smith, L. A. Burns, A. C. Simmonett, R. M. Parrish,
    M. C. Schieber, R. Galvelis, P. Kraus, H. Kruse, R. Di Remigio,
    A. Alenaizan, A. M. James, S. Lehtola, J. P. Misiewicz, M. Scheurer,
    R. A. Shaw, J. B. Schriber, Y. Xie, Z. L. Glick, D. A. Sirianni,
    J. S. O'Brien, J. M. Waldrop, A. Kumar, E. G. Hohenstein,
    B. P. Pritchard, B. R. Brooks, H. F. Schaefer III, A. Yu. Sokolov,
    K. Patkowski, A. E. DePrince III, U. Bozkaya, R. A. King,
    F. A. Evangelista, J. M. Turney, T. D. Crawford, C. D. Sherrill,
    J. Chem. Phys. 152(18) 184108 (2020). https://doi.org/10.1063/5.0006002

                            Additional Code Authors
    E. T. Seidl, C. L. Janssen, E. F. Valeev, M. L. Leininger,
    J. F. Gonthier, R. M. Richard, H. R. McAlexander, M. Saitow, X. Wang,
    P. Verma, M. H. Lechner, A. Jiang, S. Behnle, A. G. Heide,
    M. F. Herbst, D. L. Poole, T. Győri, E. C. Mitchell, J. P. Pederson,
    and A. M. Wallace

             Previous Authors, Complete List of Code Contributors,
                       and Citations for Specific Modules
    https://github.com/psi4/psi4/blob/master/codemeta.json
    https://github.com/psi4/psi4/graphs/contributors
    https://psicode.org/psi4manual/master/introduction.html#citing-psifour

    -----------------------------------------------------------------------


    Psi4 started on: Monday, 10 August 2026 06:37PM

    Process ID: 75806
    Host:       choehoyun-ui-MacBookAir.local
    PSIDATADIR: /Users/hoyoun/micromamba/envs/psi4env/share/psi4
    Memory:     500.0 MiB
    Threads:    8
    Addons:     a̶d̶c̶c̶, a̶m̶b̶i̶t̶, b̶s̶e̶, c̶c̶t̶3̶, c̶f̶o̶u̶r̶, c̶h̶e̶m̶p̶s̶2̶, c̶p̶p̶e̶, d̶d̶x̶, dftd3,
                d̶f̶t̶d̶4̶, dkh, ecpint, einsums, f̶o̶r̶t̶e̶, gauxc, g̶c̶p̶, g̶d̶m̶a̶,
                g̶e̶o̶m̶e̶t̶r̶i̶c̶, g̶p̶u̶_̶d̶f̶c̶c̶, i̶n̶t̶e̶g̶r̶a̶t̶o̶r̶x̶x̶, i̶p̶i̶,
                l̶i̶b̶e̶f̶p̶, m̶d̶i̶, m̶p̶2̶d̶, m̶r̶c̶c̶, ooo, o̶p̶e̶n̶f̶e̶r̶m̶i̶o̶n̶p̶s̶i̶4̶,
                pcmsolver, p̶s̶i̶4̶f̶o̶c̶k̶c̶i̶, p̶s̶i̶x̶a̶s̶, p̶y̶e̶i̶n̶s̶u̶m̶s̶, r̶e̶s̶p̶,
                s̶i̶m̶i̶n̶t̶, s̶n̶s̶m̶p̶2̶, v̶2̶r̶d̶m̶_̶c̶a̶s̶s̶c̶f̶

  ==> Input File <==

--------------------------------------------------------------------------
memory 3 GB
molecule mol {
0 1
C -1.95848149831602 -0.08986343242667 0.00000000000000
C -0.53829218870458 0.39058597021900 0.00000000000000
C 0.53829218870458 -0.39058597021900 0.00000000000000
C 1.95848149831602 0.08986343242667 0.00000000000000
H -2.01216151466657 -1.18054743254536 0.00000000000000
H -2.50075390449929 0.27605920311391 -0.87805710953487
H -2.50075390449929 0.27605920311391 0.87805710953487
H -0.39879113303035 1.47086761123373 0.00000000000000
H 0.39879113303035 -1.47086761123373 0.00000000000000
H 2.01216151466657 1.18054743254536 0.00000000000000
H 2.50075390449929 -0.27605920311391 0.87805710953487
H 2.50075390449929 -0.27605920311391 -0.87805710953487
units angstrom
no_reorient
no_com
}
set basis def2-SVP
set scf_type df
set freeze_core true
set e_convergence 8
energy('b3lyp-d3bj')
--------------------------------------------------------------------------

  Memory set to   2.794 GiB by Python driver.

Scratch directory: /Users/hoyoun/Documents/Yonsei_AX_Camp/(진짜_이게_최종)/calibration/dft_work/_scratch/E4/
   => Libint2 <=

    Primary   basis highest AM E, G, H:  7, 6, 3
    Auxiliary basis highest AM E, G, H:  7, 7, 4
    Onebody   basis highest AM E, G, H:  -, -, -
    Solid Harmonics ordering:            Gaussian

*** tstart() called on choehoyun-ui-MacBookAir.local
*** at Mon Aug 10 18:37:02 2026

   => Loading Basis Set <=

    Name: DEF2-SVP
    Role: ORBITAL
    Keyword: BASIS
    atoms 1-4  entry C          line    90 file /Users/hoyoun/micromamba/envs/psi4env/share/psi4/basis/def2-svp.gbs 
    atoms 5-12 entry H          line    15 file /Users/hoyoun/micromamba/envs/psi4env/share/psi4/basis/def2-svp.gbs 

   => B3LYP-D3(BJ): Empirical Dispersion <=

    Grimme's -D3 (BJ-damping) Dispersion Correction
    Grimme S.; Ehrlich S.; Goerigk L. (2011), J. Comput. Chem., 32: 1456

        s6 =       1.000000
        s8 =       1.988900
        a1 =       0.398100
        a2 =       4.421100


         ---------------------------------------------------------
                                   SCF
               by Justin Turney, Rob Parrish, Andy Simmonett
                          and Daniel G. A. Smith
                              RKS Reference
                        8 Threads,   2861 MiB Core
         ---------------------------------------------------------

  ==> Geometry <==

    Molecular point group: c2h
    Full point group: C2h

    Geometry (in Angstrom), charge = 0, multiplicity = 1:

       Center              X                  Y                   Z               Mass       
    ------------   -----------------  -----------------  -----------------  -----------------
         C           -1.958481498316    -0.089863432427     0.000000000000    12.000000000000
         C           -0.538292188705     0.390585970219     0.000000000000    12.000000000000
         C            0.538292188705    -0.390585970219     0.000000000000    12.000000000000
         C            1.958481498316     0.089863432427     0.000000000000    12.000000000000
         H           -2.012161514667    -1.180547432545     0.000000000000     1.007825032230
         H           -2.500753904499     0.276059203114    -0.878057109535     1.007825032230
         H           -2.500753904499     0.276059203114     0.878057109535     1.007825032230
         H           -0.398791133030     1.470867611234     0.000000000000     1.007825032230
         H            0.398791133030    -1.470867611234     0.000000000000     1.007825032230
         H            2.012161514667     1.180547432545     0.000000000000     1.007825032230
         H            2.500753904499    -0.276059203114     0.878057109535     1.007825032230
         H            2.500753904499    -0.276059203114    -0.878057109535     1.007825032230

  Running in c2h symmetry.

  Rotational constants: A =      1.16739  B =      0.12413  C =      0.11704 [cm^-1]
  Rotational constants: A =  34997.49378  B =   3721.21538  C =   3508.73589 [MHz]
  Nuclear repulsion =  115.857509777621516

  Charge       = 0
  Multiplicity = 1
  Electrons    = 32
  Nalpha       = 16
  Nbeta        = 16

  ==> Algorithm <==

  SCF Algorithm Type is DF.
  DIIS enabled.
  MOM disabled.
  Fractional occupation disabled.
  Guess Type is SAD.
  Energy threshold   = 1.00e-08
  Density threshold  = 1.00e-06
  Integral threshold = 1.00e-12

  ==> Primary Basis <==

  Basis Set: DEF2-SVP
    Blend: DEF2-SVP
    Number of shells: 48
    Number of basis functions: 96
    Number of Cartesian functions: 100
    Spherical Harmonics?: true
    Max angular momentum: 2

  ==> DFT Potential <==

   => LibXC <=

    Version 7.1.2
    S. Lehtola, C. Steigemann, M. J. T. Oliveira, and M. A. L. Marques,  SoftwareX 7, 1–5 (2018) (10.1016/j.softx.2017.11.002)

   => Composite Functional: B3LYP-D3BJ2B <= 

    B3LYP-d3bj2b Hyb-GGA Exchange-Correlation Functional

    P. J. Stephens, F. J. Devlin, C. F. Chabalowski, and M. J. Frisch,  J. Phys. Chem. 98, 11623 (1994) (10.1021/j100096a001)

    Deriv               =              1
    GGA                 =           TRUE
    Meta                =          FALSE

    Exchange Hybrid     =           TRUE
    MP2 Hybrid          =          FALSE

   => Exchange Functionals <=

    0.0800   Slater exchange
    0.7200         Becke 88

   => Exact (HF) Exchange <=

    0.2000               HF 

   => Correlation Functionals <=

    0.1900   Vosko, Wilk & Nusair (VWN5_RPA)
    0.8100   Lee, Yang & Parr

   => LibXC Density Thresholds  <==

    XC_HYB_GGA_XC_B3LYP:  1.00E-15 

   => Molecular Quadrature <=

    Radial Scheme          =       TREUTLER
    Pruning Scheme         =           NONE
    Nuclear Scheme         =       TREUTLER

    Blocking Scheme        =         OCTREE
    BS radius alpha        =              1
    Pruning alpha          =              1
    Radial Points          =             75
    Spherical Points       =            302
    Total Points           =         256920
    Total Blocks           =           1962
    Max Points             =            256
    Max Functions          =             95
    Weights Tolerance      =       1.00E-15

   => Loading Basis Set <=

    Name: (DEF2-SVP AUX)
    Role: JKFIT
    Keyword: DF_BASIS_SCF
    atoms 1-4  entry C          line   198 file /Users/hoyoun/micromamba/envs/psi4env/share/psi4/basis/def2-universal-jkfit.gbs 
    atoms 5-12 entry H          line    18 file /Users/hoyoun/micromamba/envs/psi4env/share/psi4/basis/def2-universal-jkfit.gbs 

  ==> Integral Setup <==

  DFHelper Memory: AOs need 0.034 GiB; user supplied 1.525 GiB. 
  SCF_SUBTYPE=INCORE selected. In-core MEM_DF algorithm will be used.
  Using in-core AOs.

  ==> MemDFJK: Density-Fitted J/K Matrices <==

    J tasked:                   Yes
    K tasked:                   Yes
    wK tasked:                   No
    OpenMP threads:               8
    Memory [MiB]:              1561
    Algorithm:                 Core
    Schwarz Cutoff:           1E-12
    Mask sparsity (%):       2.7561
    Fitting Condition:        1E-10

   => Auxiliary Basis Set <=

  Basis Set: (DEF2-SVP AUX)
    Blend: DEF2-UNIVERSAL-JKFIT
    Number of shells: 148
    Number of basis functions: 444
    Number of Cartesian functions: 516
    Spherical Harmonics?: true
    Max angular momentum: 4

  Cached 100.0% of DFT collocation blocks in 0.570 [GiB].

  Minimum eigenvalue in the overlap matrix is 3.1541130532E-03.
  Reciprocal condition number of the overlap matrix is 5.8619535911E-04.
    Using symmetric orthogonalization.

  ==> Pre-Iterations <==

  SCF Guess: Superposition of Atomic Densities via on-the-fly atomic UHF (no occupation information).

   -------------------------
    Irrep   Nso     Nmo    
   -------------------------
     Ag        33      33 
     Bg        15      15 
     Au        15      15 
     Bu        33      33 
   -------------------------
    Total      96      96
   -------------------------

  ==> Iterations <==

                           Total Energy        Delta E     RMS |[F,P]|

   @DF-RKS iter SAD:  -156.48230920768628   -1.56482e+02   0.00000e+00 
   @DF-RKS iter   1:  -156.70640067316054   -2.24091e-01   1.65283e-02 DIIS/ADIIS
   @DF-RKS iter   2:  -156.58765726898790    1.18743e-01   1.86149e-02 DIIS/ADIIS
   @DF-RKS iter   3:  -157.12496821987358   -5.37311e-01   5.87689e-04 DIIS/ADIIS
   @DF-RKS iter   4:  -157.12522492776054   -2.56708e-04   3.89750e-04 DIIS/ADIIS
   @DF-RKS iter   5:  -157.12542539556898   -2.00468e-04   9.06111e-05 DIIS
   @DF-RKS iter   6:  -157.12543591228686   -1.05167e-05   7.80762e-06 DIIS
   @DF-RKS iter   7:  -157.12543600316943   -9.08826e-08   4.90362e-07 DIIS
   @DF-RKS iter   8:  -157.12543600356969   -4.00263e-10   8.76419e-08 DIIS
  Energy and wave function converged.


  ==> Post-Iterations <==

   Electrons on quadrature grid:
      Ntotal   =   32.0000722932 ; deviation = 7.229e-05 

    Orbital Energies [Eh]
    ---------------------

    Doubly Occupied:                                                      

       1Ag   -10.179795     1Bu   -10.179775     2Ag   -10.178186  
       2Bu   -10.177443     3Ag    -0.787571     3Bu    -0.719384  
       4Ag    -0.635077     4Bu    -0.539835     5Bu    -0.442364  
       5Ag    -0.439971     1Au    -0.414997     1Bg    -0.401102  
       6Bu    -0.372389     6Ag    -0.361571     7Ag    -0.338976  
       2Au    -0.242999  

    Virtual:                                                              

       2Bg     0.026938     8Ag     0.077172     7Bu     0.081536  
       8Bu     0.089194     9Ag     0.137569     3Bg     0.138405  
       3Au     0.143221    10Ag     0.155645     9Bu     0.161145  
      10Bu     0.238097    11Ag     0.277603    11Bu     0.394019  
      12Ag     0.399337    12Bu     0.425186    13Ag     0.433596  
       4Bg     0.443024     4Au     0.456538    13Bu     0.522631  
       5Bg     0.591590     5Au     0.594460    14Ag     0.601938  
      14Bu     0.615891    15Ag     0.633472    16Ag     0.651044  
      15Bu     0.655580    16Bu     0.671925    17Ag     0.680552  
       6Au     0.683036    17Bu     0.685252     6Bg     0.698689  
      18Ag     0.718784    18Bu     0.720632    19Ag     0.856753  
      19Bu     0.888003    20Bu     0.960748    20Ag     1.126707  
       7Bg     1.137390     7Au     1.144178     8Au     1.274927  
      21Ag     1.325958    21Bu     1.404107     8Bg     1.509413  
       9Au     1.541187     9Bg     1.544307    10Au     1.591548  
      22Ag     1.686827    22Bu     1.694552    10Bg     1.741054  
      23Ag     1.781859    23Bu     1.786348    24Ag     1.803141  
      11Au     1.820622    11Bg     1.828880    24Bu     1.847853  
      25Bu     1.881175    25Ag     1.910478    12Au     1.965943  
      26Ag     1.968458    26Bu     1.987572    12Bg     2.138660  
      27Bu     2.192687    27Ag     2.195808    28Ag     2.277667  
      13Bg     2.287898    13Au     2.306289    28Bu     2.426068  
      29Ag     2.470009    29Bu     2.484329    14Au     2.543630  
      30Ag     2.611126    14Bg     2.656263    30Bu     2.701718  
      31Ag     2.740482    31Bu     2.778669    15Bg     2.921788  
      15Au     2.959935    32Ag     2.966490    32Bu     2.968124  
      33Bu     3.141117    33Ag     3.267253  

    Final Occupation by Irrep:
             Ag    Bg    Au    Bu 
    DOCC [     7,    1,    2,    6 ]
    NA   [     7,    1,    2,    6 ]
    NB   [     7,    1,    2,    6 ]

  @DF-RKS Final Energy:  -157.12543600356969

   => Energetics <=

    Nuclear Repulsion Energy =            115.8575097776215159
    One-Electron Energy =                -438.7750632505913018
    Two-Electron Energy =                 185.7520031627184949
    DFT Exchange-Correlation Energy =     -19.9475862453536870
    Empirical Dispersion Energy =          -0.0122994479647532
    VV10 Nonlocal Energy =                  0.0000000000000000
    Total Energy =                       -157.1254360035696891

Computation Completed


Properties will be evaluated at   0.000000,   0.000000,   0.000000 [a0]

Properties computed using the SCF density matrix


 Multipole Moments:

 ------------------------------------------------------------------------------------
     Multipole            Electronic (a.u.)      Nuclear  (a.u.)        Total (a.u.)
 ------------------------------------------------------------------------------------

 L = 1.  Multiply by 2.5417464519 to convert [e a0] to [Debye]
 Dipole X            :          0.0000000            0.0000000            0.0000000
 Dipole Y            :          0.0000000            0.0000000            0.0000000
 Dipole Z            :          0.0000000            0.0000000            0.0000000
 Magnitude           :                                                    0.0000000

 ------------------------------------------------------------------------------------

*** tstop() called on choehoyun-ui-MacBookAir.local at Mon Aug 10 18:37:03 2026
Module time:
	user time   =       5.28 seconds =       0.09 minutes
	system time =       0.20 seconds =       0.00 minutes
	total time  =          1 seconds =       0.02 minutes
Total time:
	user time   =       5.28 seconds =       0.09 minutes
	system time =       0.20 seconds =       0.00 minutes
	total time  =          1 seconds =       0.02 minutes

    Psi4 stopped on: Monday, 10 August 2026 06:37PM
    Psi4 wall time for execution: 0:00:01.32

*** Psi4 exiting successfully. Buy a developer a beer!
