
    -----------------------------------------------------------------------
          Psi4: An Open-Source Ab Initio Electronic Structure Package
                               Psi4 1.11 release

                         Git: Rev {} zzzzzzz 


    D. G. A. Smith, L. A. Burns, A. C. Simmonett, R. M. Parrish,
    M. C. Schieber, R. Galvelis, P. Kraus, H. Kruse, R. Di Remigio,
    A. Alenaizan, A. M. James, S. Lehtola, J. P. Misiewicz, M. Scheurer,
    R. A. Shaw, J. B. Schriber, Y. Xie, Z. L. Glick, D. A. Sirianni,
    J. S. O'Brien, J. M. Waldrop, A. Kumar, E. G. Hohenstein,
    B. P. Pritchard, B. R. Brooks, H. F. Schaefer III, A. Yu. Sokolov,
    K. Patkowski, A. E. DePrince III, U. Bozkaya, R. A. King,
    F. A. Evangelista, J. M. Turney, T. D. Crawford, C. D. Sherrill,
    J. Chem. Phys. 152(18) 184108 (2020). https://doi.org/10.1063/5.0006002

                            Additional Code Authors
    E. T. Seidl, C. L. Janssen, E. F. Valeev, M. L. Leininger,
    J. F. Gonthier, R. M. Richard, H. R. McAlexander, M. Saitow, X. Wang,
    P. Verma, M. H. Lechner, A. Jiang, S. Behnle, A. G. Heide,
    M. F. Herbst, D. L. Poole, T. Győri, E. C. Mitchell, J. P. Pederson,
    and A. M. Wallace

             Previous Authors, Complete List of Code Contributors,
                       and Citations for Specific Modules
    https://github.com/psi4/psi4/blob/master/codemeta.json
    https://github.com/psi4/psi4/graphs/contributors
    https://psicode.org/psi4manual/master/introduction.html#citing-psifour

    -----------------------------------------------------------------------


    Psi4 started on: Sunday, 09 August 2026 02:32AM

    Process ID: 50531
    Host:       choehoyun-ui-MacBookAir.local
    PSIDATADIR: /Users/hoyoun/micromamba/envs/psi4env/share/psi4
    Memory:     500.0 MiB
    Threads:    8
    Addons:     a̶d̶c̶c̶, a̶m̶b̶i̶t̶, b̶s̶e̶, c̶c̶t̶3̶, c̶f̶o̶u̶r̶, c̶h̶e̶m̶p̶s̶2̶, c̶p̶p̶e̶, d̶d̶x̶, dftd3,
                d̶f̶t̶d̶4̶, dkh, ecpint, einsums, f̶o̶r̶t̶e̶, gauxc, g̶c̶p̶, g̶d̶m̶a̶,
                g̶e̶o̶m̶e̶t̶r̶i̶c̶, g̶p̶u̶_̶d̶f̶c̶c̶, i̶n̶t̶e̶g̶r̶a̶t̶o̶r̶x̶x̶, i̶p̶i̶,
                l̶i̶b̶e̶f̶p̶, m̶d̶i̶, m̶p̶2̶d̶, m̶r̶c̶c̶, ooo, o̶p̶e̶n̶f̶e̶r̶m̶i̶o̶n̶p̶s̶i̶4̶,
                pcmsolver, p̶s̶i̶4̶f̶o̶c̶k̶c̶i̶, p̶s̶i̶x̶a̶s̶, p̶y̶e̶i̶n̶s̶u̶m̶s̶, r̶e̶s̶p̶,
                s̶i̶m̶i̶n̶t̶, s̶n̶s̶m̶p̶2̶, v̶2̶r̶d̶m̶_̶c̶a̶s̶s̶c̶f̶

  ==> Input File <==

--------------------------------------------------------------------------
memory 3 GB
molecule mol {
0 1
N -0.18412743607248 1.11299354281761 0.08331834664126
H -1.05391184561889 0.76653500107505 -0.29838753201933
C 0.48093762682765 0.26445328305487 1.05563911721652
H 0.90887337621929 0.92011783516574 1.81727305556054
C -0.55635099898095 -0.66556980375951 1.69267212439548
C 1.64434079518066 -0.51939629945190 0.42467840356501
H -1.18456449291865 -0.07276736642796 2.35718622089103
H -0.03099234306517 -1.40489931840361 2.29603364553500
C -1.43896426370925 -1.31952948146669 0.68888218594413
O 1.65014909901344 -1.75220715516301 0.34194855940588
N -1.00119971760420 -2.27549959166554 -0.18918821653770
C -2.76541740549864 -1.11498389963652 0.34904953423089
H -0.02995046896997 -2.56663064863573 -0.22317169871303
C -2.04169276887765 -2.60369967530093 -0.99821052613042
N -3.13638042986095 -1.91906154062589 -0.69837876586218
H -3.46578905685646 -0.45038885137397 0.82818267035922
H -1.95688031278980 -3.33829933208734 -1.78028560397520
C 0.27062448844697 2.33881841381311 -0.26147232978454
C -0.62563618689455 3.13594252511090 -1.17199717209756
O 1.34499776440911 2.78387417157976 0.15113428601611
H -1.45241684213688 2.55352229967596 -1.57044040358788
H -0.02902333428398 3.53291437905262 -1.98861872192663
H -1.02245544228926 3.97960536629161 -0.61071926536027
N 2.64359308776433 0.27032595360988 0.00203158553994
C 3.81764250868416 -0.25380592150418 -0.66241564144845
H 2.50098513465382 1.27291623627663 0.09371092744100
H 3.82302651528722 0.01283897746392 -1.71821075429411
H 4.71927424766986 0.13526518530781 -0.19537344998959
H 3.80083872689338 -1.33478327828194 -0.56892058431315
units angstrom
no_reorient
no_com
}
set basis def2-TZVP
set scf_type df
set freeze_core true
set e_convergence 8
energy('b3lyp-d3bj')
--------------------------------------------------------------------------

  Memory set to   2.794 GiB by Python driver.

Scratch directory: /Users/hoyoun/Documents/Yonsei_AX_Camp/(진짜_이게_최종)/calibration/dft_work/_scratch/HIS_xaq/
   => Libint2 <=

    Primary   basis highest AM E, G, H:  7, 6, 3
    Auxiliary basis highest AM E, G, H:  7, 7, 4
    Onebody   basis highest AM E, G, H:  -, -, -
    Solid Harmonics ordering:            Gaussian

*** tstart() called on choehoyun-ui-MacBookAir.local
*** at Sun Aug  9 02:32:36 2026

   => Loading Basis Set <=

    Name: DEF2-TZVP
    Role: ORBITAL
    Keyword: BASIS
    atoms 1, 11, 15, 24                      entry N          line   156 file /Users/hoyoun/micromamba/envs/psi4env/share/psi4/basis/def2-tzvp.gbs 
    atoms 2, 4, 7-8, 13, 16-17, 21-23, 26-29 entry H          line    15 file /Users/hoyoun/micromamba/envs/psi4env/share/psi4/basis/def2-tzvp.gbs 
    atoms 3, 5-6, 9, 12, 14, 18-19, 25       entry C          line   123 file /Users/hoyoun/micromamba/envs/psi4env/share/psi4/basis/def2-tzvp.gbs 
    atoms 10, 20                             entry O          line   189 file /Users/hoyoun/micromamba/envs/psi4env/share/psi4/basis/def2-tzvp.gbs 

   => B3LYP-D3(BJ): Empirical Dispersion <=

    Grimme's -D3 (BJ-damping) Dispersion Correction
    Grimme S.; Ehrlich S.; Goerigk L. (2011), J. Comput. Chem., 32: 1456

        s6 =       1.000000
        s8 =       1.988900
        a1 =       0.398100
        a2 =       4.421100


         ---------------------------------------------------------
                                   SCF
               by Justin Turney, Rob Parrish, Andy Simmonett
                          and Daniel G. A. Smith
                              RKS Reference
                        8 Threads,   2861 MiB Core
         ---------------------------------------------------------

  ==> Geometry <==

    Molecular point group: c1
    Full point group: C1

    Geometry (in Angstrom), charge = 0, multiplicity = 1:

       Center              X                  Y                   Z               Mass       
    ------------   -----------------  -----------------  -----------------  -----------------
         N           -0.184127436072     1.112993542818     0.083318346641    14.003074004430
         H           -1.053911845619     0.766535001075    -0.298387532019     1.007825032230
         C            0.480937626828     0.264453283055     1.055639117217    12.000000000000
         H            0.908873376219     0.920117835166     1.817273055561     1.007825032230
         C           -0.556350998981    -0.665569803760     1.692672124395    12.000000000000
         C            1.644340795181    -0.519396299452     0.424678403565    12.000000000000
         H           -1.184564492919    -0.072767366428     2.357186220891     1.007825032230
         H           -0.030992343065    -1.404899318404     2.296033645535     1.007825032230
         C           -1.438964263709    -1.319529481467     0.688882185944    12.000000000000
         O            1.650149099013    -1.752207155163     0.341948559406    15.994914619570
         N           -1.001199717604    -2.275499591666    -0.189188216538    14.003074004430
         C           -2.765417405499    -1.114983899637     0.349049534231    12.000000000000
         H           -0.029950468970    -2.566630648636    -0.223171698713     1.007825032230
         C           -2.041692768878    -2.603699675301    -0.998210526130    12.000000000000
         N           -3.136380429861    -1.919061540626    -0.698378765862    14.003074004430
         H           -3.465789056856    -0.450388851374     0.828182670359     1.007825032230
         H           -1.956880312790    -3.338299332087    -1.780285603975     1.007825032230
         C            0.270624488447     2.338818413813    -0.261472329785    12.000000000000
         C           -0.625636186895     3.135942525111    -1.171997172098    12.000000000000
         O            1.344997764409     2.783874171580     0.151134286016    15.994914619570
         H           -1.452416842137     2.553522299676    -1.570440403588     1.007825032230
         H           -0.029023334284     3.532914379053    -1.988618721927     1.007825032230
         H           -1.022455442289     3.979605366292    -0.610719265360     1.007825032230
         N            2.643593087764     0.270325953610     0.002031585540    14.003074004430
         C            3.817642508684    -0.253805921504    -0.662415641448    12.000000000000
         H            2.500985134654     1.272916236277     0.093710927441     1.007825032230
         H            3.823026515287     0.012838977464    -1.718210754294     1.007825032230
         H            4.719274247670     0.135265185308    -0.195373449990     1.007825032230
         H            3.800838726893    -1.334783278282    -0.568920584313     1.007825032230

  Running in c1 symmetry.

  Rotational constants: A =      0.02659  B =      0.01536  C =      0.01139 [cm^-1]
  Rotational constants: A =    797.17594  B =    460.48317  C =    341.57776 [MHz]
  Nuclear repulsion = 1039.623167077023481

  Charge       = 0
  Multiplicity = 1
  Electrons    = 112
  Nalpha       = 56
  Nbeta        = 56

  ==> Algorithm <==

  SCF Algorithm Type is DF.
  DIIS enabled.
  MOM disabled.
  Fractional occupation disabled.
  Guess Type is SAD.
  Energy threshold   = 1.00e-08
  Density threshold  = 1.00e-06
  Integral threshold = 1.00e-12

  ==> Primary Basis <==

  Basis Set: DEF2-TZVP
    Blend: DEF2-TZVP
    Number of shells: 221
    Number of basis functions: 549
    Number of Cartesian functions: 624
    Spherical Harmonics?: true
    Max angular momentum: 3

  ==> DFT Potential <==

   => LibXC <=

    Version 7.1.2
    S. Lehtola, C. Steigemann, M. J. T. Oliveira, and M. A. L. Marques,  SoftwareX 7, 1–5 (2018) (10.1016/j.softx.2017.11.002)

   => Composite Functional: B3LYP-D3BJ2B <= 

    B3LYP-d3bj2b Hyb-GGA Exchange-Correlation Functional

    P. J. Stephens, F. J. Devlin, C. F. Chabalowski, and M. J. Frisch,  J. Phys. Chem. 98, 11623 (1994) (10.1021/j100096a001)

    Deriv               =              1
    GGA                 =           TRUE
    Meta                =          FALSE

    Exchange Hybrid     =           TRUE
    MP2 Hybrid          =          FALSE

   => Exchange Functionals <=

    0.0800   Slater exchange
    0.7200         Becke 88

   => Exact (HF) Exchange <=

    0.2000               HF 

   => Correlation Functionals <=

    0.1900   Vosko, Wilk & Nusair (VWN5_RPA)
    0.8100   Lee, Yang & Parr

   => LibXC Density Thresholds  <==

    XC_HYB_GGA_XC_B3LYP:  1.00E-15 

   => Molecular Quadrature <=

    Radial Scheme          =       TREUTLER
    Pruning Scheme         =           NONE
    Nuclear Scheme         =       TREUTLER

    Blocking Scheme        =         OCTREE
    BS radius alpha        =              1
    Pruning alpha          =              1
    Radial Points          =             75
    Spherical Points       =            302
    Total Points           =         601261
    Total Blocks           =           4341
    Max Points             =            256
    Max Functions          =            452
    Weights Tolerance      =       1.00E-15

   => Loading Basis Set <=

    Name: (DEF2-TZVP AUX)
    Role: JKFIT
    Keyword: DF_BASIS_SCF
    atoms 1, 11, 15, 24                      entry N          line   258 file /Users/hoyoun/micromamba/envs/psi4env/share/psi4/basis/def2-universal-jkfit.gbs 
    atoms 2, 4, 7-8, 13, 16-17, 21-23, 26-29 entry H          line    18 file /Users/hoyoun/micromamba/envs/psi4env/share/psi4/basis/def2-universal-jkfit.gbs 
    atoms 3, 5-6, 9, 12, 14, 18-19, 25       entry C          line   198 file /Users/hoyoun/micromamba/envs/psi4env/share/psi4/basis/def2-universal-jkfit.gbs 
    atoms 10, 20                             entry O          line   318 file /Users/hoyoun/micromamba/envs/psi4env/share/psi4/basis/def2-universal-jkfit.gbs 

  ==> Integral Setup <==

  ==> DiskDFJK: Density-Fitted J/K Matrices <==

    J tasked:                  Yes
    K tasked:                  Yes
    wK tasked:                  No
    OpenMP threads:              8
    Integrals threads:           8
    Memory [MiB]:             1407
    Algorithm:                Disk
    Integral Cache:           NONE
    Schwarz Cutoff:          1E-12
    Fitting Condition:       1E-10

   => Auxiliary Basis Set <=

  Basis Set: (DEF2-TZVP AUX)
    Blend: DEF2-UNIVERSAL-JKFIT
    Number of shells: 459
    Number of basis functions: 1389
    Number of Cartesian functions: 1639
    Spherical Harmonics?: true
    Max angular momentum: 4

  Cached 14.3% of DFT collocation blocks in 0.725 [GiB].

  Minimum eigenvalue in the overlap matrix is 5.9321311287E-05.
  Reciprocal condition number of the overlap matrix is 5.6338182934E-06.
    Using symmetric orthogonalization.

  ==> Pre-Iterations <==

  SCF Guess: Superposition of Atomic Densities via on-the-fly atomic UHF (no occupation information).

   -------------------------
    Irrep   Nso     Nmo    
   -------------------------
     A        549     549 
   -------------------------
    Total     549     549
   -------------------------

  ==> Iterations <==

                           Total Energy        Delta E     RMS |[F,P]|

   @DF-RKS iter SAD:  -720.66262910783530   -7.20663e+02   0.00000e+00 
   @DF-RKS iter   1:  -720.11260182739534    5.50027e-01   2.88756e-03 DIIS/ADIIS
   @DF-RKS iter   2:  -719.54237335138157    5.70228e-01   3.50109e-03 DIIS/ADIIS
   @DF-RKS iter   3:  -721.19189069050128   -1.64952e+00   5.46994e-04 DIIS/ADIIS
   @DF-RKS iter   4:  -721.22078006342724   -2.88894e-02   2.51676e-04 DIIS/ADIIS
   @DF-RKS iter   5:  -721.22754527641757   -6.76521e-03   1.00003e-04 DIIS/ADIIS
   @DF-RKS iter   6:  -721.22870622902371   -1.16095e-03   2.67155e-05 DIIS
   @DF-RKS iter   7:  -721.22878390986079   -7.76808e-05   7.82225e-06 DIIS
   @DF-RKS iter   8:  -721.22879193346535   -8.02360e-06   2.58425e-06 DIIS
   @DF-RKS iter   9:  -721.22879269957912   -7.66114e-07   8.58392e-07 DIIS
   @DF-RKS iter  10:  -721.22879279166330   -9.20842e-08   3.20331e-07 DIIS
   @DF-RKS iter  11:  -721.22879280270115   -1.10379e-08   1.05392e-07 DIIS
   @DF-RKS iter  12:  -721.22879280400980   -1.30865e-09   2.84993e-08 DIIS
  Energy and wave function converged.


  ==> Post-Iterations <==

   Electrons on quadrature grid:
      Ntotal   =  112.0000999927 ; deviation = 9.999e-05 

    Orbital Energies [Eh]
    ---------------------

    Doubly Occupied:                                                      

       1A    -19.110954     2A    -19.108660     3A    -14.362886  
       4A    -14.362293     5A    -14.347888     6A    -14.295668  
       7A    -10.293919     8A    -10.285220     9A    -10.239396  
      10A    -10.222602    11A    -10.207737    12A    -10.207167  
      13A    -10.199900    14A    -10.190184    15A    -10.184955  
      16A     -1.061127    17A     -1.050449    18A     -1.015135  
      19A     -0.953578    20A     -0.935273    21A     -0.870918  
      22A     -0.815588    23A     -0.766527    24A     -0.741915  
      25A     -0.718029    26A     -0.660550    27A     -0.619704  
      28A     -0.614525    29A     -0.594777    30A     -0.589455  
      31A     -0.552474    32A     -0.546655    33A     -0.510259  
      34A     -0.500800    35A     -0.484605    36A     -0.465372  
      37A     -0.462388    38A     -0.454851    39A     -0.445203  
      40A     -0.441289    41A     -0.432081    42A     -0.422866  
      43A     -0.412399    44A     -0.410172    45A     -0.406086  
      46A     -0.397083    47A     -0.391378    48A     -0.383988  
      49A     -0.377574    50A     -0.306475    51A     -0.288214  
      52A     -0.283167    53A     -0.276219    54A     -0.271273  
      55A     -0.265888    56A     -0.232423  

    Virtual:                                                              

      57A     -0.013020    58A      0.002444    59A      0.013496  
      60A      0.022221    61A      0.028831    62A      0.047357  
      63A      0.054884    64A      0.064762    65A      0.072655  
      66A      0.077298    67A      0.085988    68A      0.095651  
      69A      0.099380    70A      0.105588    71A      0.108249  
      72A      0.115542    73A      0.118216    74A      0.119114  
      75A      0.126395    76A      0.135223    77A      0.147955  
      78A      0.153882    79A      0.161860    80A      0.167446  
      81A      0.172062    82A      0.184076    83A      0.189889  
      84A      0.196154    85A      0.203716    86A      0.211777  
      87A      0.219316    88A      0.228850    89A      0.236821  
      90A      0.242552    91A      0.251725    92A      0.256569  
      93A      0.262074    94A      0.267247    95A      0.276291  
      96A      0.281041    97A      0.292119    98A      0.299799  
      99A      0.304522   100A      0.309846   101A      0.315852  
     102A      0.333492   103A      0.345516   104A      0.357309  
     105A      0.364071   106A      0.367139   107A      0.374921  
     108A      0.378335   109A      0.381083   110A      0.386537  
     111A      0.388868   112A      0.392773   113A      0.404811  
     114A      0.409028   115A      0.414010   116A      0.424016  
     117A      0.428460   118A      0.435932   119A      0.439141  
     120A      0.442006   121A      0.445587   122A      0.450608  
     123A      0.452525   124A      0.464776   125A      0.465563  
     126A      0.474401   127A      0.482298   128A      0.490430  
     129A      0.498966   130A      0.501645   131A      0.506315  
     132A      0.516978   133A      0.521672   134A      0.524219  
     135A      0.530581   136A      0.537643   137A      0.545777  
     138A      0.549646   139A      0.556597   140A      0.564608  
     141A      0.573829   142A      0.578332   143A      0.600889  
     144A      0.609911   145A      0.616836   146A      0.619973  
     147A      0.626735   148A      0.631687   149A      0.633371  
     150A      0.653065   151A      0.667318   152A      0.690443  
     153A      0.696622   154A      0.714604   155A      0.719966  
     156A      0.737787   157A      0.745879   158A      0.746813  
     159A      0.758020   160A      0.760292   161A      0.773207  
     162A      0.779020   163A      0.784402   164A      0.811763  
     165A      0.817044   166A      0.841145   167A      0.851777  
     168A      0.853552   169A      0.862336   170A      0.870833  
     171A      0.871121   172A      0.893302   173A      0.918734  
     174A      0.923120   175A      0.931431   176A      0.936810  
     177A      0.956810   178A      0.966815   179A      0.980910  
     180A      0.993502   181A      1.005228   182A      1.015684  
     183A      1.027432   184A      1.039882   185A      1.048678  
     186A      1.058434   187A      1.067339   188A      1.081200  
     189A      1.093747   190A      1.106879   191A      1.118152  
     192A      1.131210   193A      1.138734   194A      1.158127  
     195A      1.174521   196A      1.194302   197A      1.215743  
     198A      1.231046   199A      1.236501   200A      1.253814  
     201A      1.256377   202A      1.265709   203A      1.279620  
     204A      1.304996   205A      1.310466   206A      1.328610  
     207A      1.351741   208A      1.371782   209A      1.375674  
     210A      1.395220   211A      1.408847   212A      1.413522  
     213A      1.422633   214A      1.438370   215A      1.450378  
     216A      1.460114   217A      1.461642   218A      1.464952  
     219A      1.474916   220A      1.484732   221A      1.496087  
     222A      1.498648   223A      1.509884   224A      1.512994  
     225A      1.515118   226A      1.523235   227A      1.526762  
     228A      1.542090   229A      1.549727   230A      1.553956  
     231A      1.561733   232A      1.569378   233A      1.573845  
     234A      1.587223   235A      1.592646   236A      1.605869  
     237A      1.626981   238A      1.629318   239A      1.630474  
     240A      1.643512   241A      1.648756   242A      1.666411  
     243A      1.680008   244A      1.687208   245A      1.701512  
     246A      1.708256   247A      1.730888   248A      1.740398  
     249A      1.754680   250A      1.762251   251A      1.778664  
     252A      1.789457   253A      1.817088   254A      1.824799  
     255A      1.831547   256A      1.849524   257A      1.861885  
     258A      1.867466   259A      1.885015   260A      1.903855  
     261A      1.915100   262A      1.922490   263A      1.942707  
     264A      1.954470   265A      1.959672   266A      1.981522  
     267A      1.991246   268A      1.992634   269A      1.995943  
     270A      2.017227   271A      2.034576   272A      2.038667  
     273A      2.055152   274A      2.082417   275A      2.094810  
     276A      2.104121   277A      2.131526   278A      2.139457  
     279A      2.152153   280A      2.169996   281A      2.180090  
     282A      2.188193   283A      2.192739   284A      2.216523  
     285A      2.224531   286A      2.226817   287A      2.238428  
     288A      2.251761   289A      2.265867   290A      2.280907  
     291A      2.287221   292A      2.302526   293A      2.310318  
     294A      2.321762   295A      2.325413   296A      2.330738  
     297A      2.341240   298A      2.359920   299A      2.377397  
     300A      2.384201   301A      2.395167   302A      2.404729  
     303A      2.428937   304A      2.431744   305A      2.462314  
     306A      2.470160   307A      2.486244   308A      2.501168  
     309A      2.504217   310A      2.525049   311A      2.536744  
     312A      2.538029   313A      2.551926   314A      2.557046  
     315A      2.560759   316A      2.582176   317A      2.586734  
     318A      2.604092   319A      2.620613   320A      2.647099  
     321A      2.652428   322A      2.663260   323A      2.665733  
     324A      2.693930   325A      2.705424   326A      2.712360  
     327A      2.736239   328A      2.748239   329A      2.762793  
     330A      2.768287   331A      2.777950   332A      2.804448  
     333A      2.809619   334A      2.824910   335A      2.842445  
     336A      2.855406   337A      2.861246   338A      2.876133  
     339A      2.881517   340A      2.888765   341A      2.902596  
     342A      2.910448   343A      2.921870   344A      2.925893  
     345A      2.951043   346A      2.963980   347A      2.967218  
     348A      2.971501   349A      2.982775   350A      2.993174  
     351A      3.012291   352A      3.027699   353A      3.038012  
     354A      3.041534   355A      3.052017   356A      3.058096  
     357A      3.063603   358A      3.068617   359A      3.079611  
     360A      3.091723   361A      3.096417   362A      3.100767  
     363A      3.108303   364A      3.133590   365A      3.142868  
     366A      3.147567   367A      3.157860   368A      3.165803  
     369A      3.182641   370A      3.191082   371A      3.213603  
     372A      3.216317   373A      3.226497   374A      3.240365  
     375A      3.247584   376A      3.254313   377A      3.265121  
     378A      3.271601   379A      3.290349   380A      3.293011  
     381A      3.309460   382A      3.322373   383A      3.327220  
     384A      3.336321   385A      3.339701   386A      3.348142  
     387A      3.360713   388A      3.378423   389A      3.385419  
     390A      3.390795   391A      3.402570   392A      3.418405  
     393A      3.428099   394A      3.434078   395A      3.439087  
     396A      3.450380   397A      3.462094   398A      3.483739  
     399A      3.485692   400A      3.500492   401A      3.509717  
     402A      3.529868   403A      3.541693   404A      3.550462  
     405A      3.571668   406A      3.579849   407A      3.597041  
     408A      3.608462   409A      3.616229   410A      3.631648  
     411A      3.668368   412A      3.677690   413A      3.692596  
     414A      3.717297   415A      3.718332   416A      3.731610  
     417A      3.769169   418A      3.779903   419A      3.800748  
     420A      3.806629   421A      3.819150   422A      3.848754  
     423A      3.857877   424A      3.865613   425A      3.885720  
     426A      3.894364   427A      3.925898   428A      3.930939  
     429A      3.941328   430A      3.976283   431A      4.015400  
     432A      4.034884   433A      4.068987   434A      4.079433  
     435A      4.109646   436A      4.118570   437A      4.139407  
     438A      4.167383   439A      4.169388   440A      4.203988  
     441A      4.253834   442A      4.259602   443A      4.299558  
     444A      4.305178   445A      4.332179   446A      4.362895  
     447A      4.373376   448A      4.385633   449A      4.422164  
     450A      4.431870   451A      4.438950   452A      4.478964  
     453A      4.492538   454A      4.509307   455A      4.532335  
     456A      4.546989   457A      4.587817   458A      4.607039  
     459A      4.612853   460A      4.700310   461A      4.704816  
     462A      4.722227   463A      4.733305   464A      4.771590  
     465A      4.779364   466A      4.806561   467A      4.812503  
     468A      4.818509   469A      4.844156   470A      4.853394  
     471A      4.882542   472A      4.907243   473A      4.925682  
     474A      4.946354   475A      4.999235   476A      5.022914  
     477A      5.038975   478A      5.060001   479A      5.067061  
     480A      5.082625   481A      5.092269   482A      5.098750  
     483A      5.133958   484A      5.140957   485A      5.168081  
     486A      5.172269   487A      5.184708   488A      5.196421  
     489A      5.207403   490A      5.247816   491A      5.253081  
     492A      5.260387   493A      5.277012   494A      5.292330  
     495A      5.306947   496A      5.329251   497A      5.337032  
     498A      5.406567   499A      5.411304   500A      5.429399  
     501A      5.449744   502A      5.482834   503A      5.491143  
     504A      5.513741   505A      5.517914   506A      5.576009  
     507A      5.599168   508A      5.616640   509A      5.636033  
     510A      5.673260   511A      5.676351   512A      5.812867  
     513A      5.827277   514A      5.869813   515A      5.891665  
     516A      5.951644   517A      6.037690   518A      6.079051  
     519A      6.115700   520A      6.143453   521A      6.297402  
     522A      6.325989   523A      6.488845   524A      6.497191  
     525A      6.548418   526A      6.569425   527A      6.686026  
     528A      6.703698   529A      6.821856   530A      6.842884  
     531A      7.066229   532A      7.077244   533A      7.085257  
     534A      7.121242   535A     22.307776   536A     22.405314  
     537A     22.501930   538A     22.663587   539A     22.697325  
     540A     22.831613   541A     23.170887   542A     23.289037  
     543A     23.377985   544A     32.219429   545A     32.363192  
     546A     32.422200   547A     32.598511   548A     43.892695  
     549A     43.975568  

    Final Occupation by Irrep:
              A 
    DOCC [    56 ]
    NA   [    56 ]
    NB   [    56 ]

  @DF-RKS Final Energy:  -721.22879280400980

   => Energetics <=

    Nuclear Repulsion Energy =           1039.6231670770234814
    One-Electron Energy =               -3043.8463100622084312
    Two-Electron Energy =                1363.2821307407532458
    DFT Exchange-Correlation Energy =     -80.2337968515231239
    Empirical Dispersion Energy =          -0.0539837080549224
    VV10 Nonlocal Energy =                  0.0000000000000000
    Total Energy =                       -721.2287928040097995

Computation Completed


Properties will be evaluated at   0.000000,   0.000000,   0.000000 [a0]

Properties computed using the SCF density matrix


 Multipole Moments:

 ------------------------------------------------------------------------------------
     Multipole            Electronic (a.u.)      Nuclear  (a.u.)        Total (a.u.)
 ------------------------------------------------------------------------------------

 L = 1.  Multiply by 2.5417464519 to convert [e a0] to [Debye]
 Dipole X            :        -19.0153316           19.7557451            0.7404135
 Dipole Y            :         23.0088872          -22.3857599            0.6231273
 Dipole Z            :         -6.6215121            6.5542431           -0.0672689
 Magnitude           :                                                    0.9700644

 ------------------------------------------------------------------------------------

*** tstop() called on choehoyun-ui-MacBookAir.local at Sun Aug  9 02:33:33 2026
Module time:
	user time   =     374.99 seconds =       6.25 minutes
	system time =       7.56 seconds =       0.13 minutes
	total time  =         57 seconds =       0.95 minutes
Total time:
	user time   =     374.99 seconds =       6.25 minutes
	system time =       7.56 seconds =       0.13 minutes
	total time  =         57 seconds =       0.95 minutes

    Psi4 stopped on: Sunday, 09 August 2026 02:33AM
    Psi4 wall time for execution: 0:00:56.89

*** Psi4 exiting successfully. Buy a developer a beer!
