
    -----------------------------------------------------------------------
          Psi4: An Open-Source Ab Initio Electronic Structure Package
                               Psi4 1.11 release

                         Git: Rev {} zzzzzzz 


    D. G. A. Smith, L. A. Burns, A. C. Simmonett, R. M. Parrish,
    M. C. Schieber, R. Galvelis, P. Kraus, H. Kruse, R. Di Remigio,
    A. Alenaizan, A. M. James, S. Lehtola, J. P. Misiewicz, M. Scheurer,
    R. A. Shaw, J. B. Schriber, Y. Xie, Z. L. Glick, D. A. Sirianni,
    J. S. O'Brien, J. M. Waldrop, A. Kumar, E. G. Hohenstein,
    B. P. Pritchard, B. R. Brooks, H. F. Schaefer III, A. Yu. Sokolov,
    K. Patkowski, A. E. DePrince III, U. Bozkaya, R. A. King,
    F. A. Evangelista, J. M. Turney, T. D. Crawford, C. D. Sherrill,
    J. Chem. Phys. 152(18) 184108 (2020). https://doi.org/10.1063/5.0006002

                            Additional Code Authors
    E. T. Seidl, C. L. Janssen, E. F. Valeev, M. L. Leininger,
    J. F. Gonthier, R. M. Richard, H. R. McAlexander, M. Saitow, X. Wang,
    P. Verma, M. H. Lechner, A. Jiang, S. Behnle, A. G. Heide,
    M. F. Herbst, D. L. Poole, T. Győri, E. C. Mitchell, J. P. Pederson,
    and A. M. Wallace

             Previous Authors, Complete List of Code Contributors,
                       and Citations for Specific Modules
    https://github.com/psi4/psi4/blob/master/codemeta.json
    https://github.com/psi4/psi4/graphs/contributors
    https://psicode.org/psi4manual/master/introduction.html#citing-psifour

    -----------------------------------------------------------------------


    Psi4 started on: Sunday, 09 August 2026 02:03AM

    Process ID: 48847
    Host:       choehoyun-ui-MacBookAir.local
    PSIDATADIR: /Users/hoyoun/micromamba/envs/psi4env/share/psi4
    Memory:     500.0 MiB
    Threads:    8
    Addons:     a̶d̶c̶c̶, a̶m̶b̶i̶t̶, b̶s̶e̶, c̶c̶t̶3̶, c̶f̶o̶u̶r̶, c̶h̶e̶m̶p̶s̶2̶, c̶p̶p̶e̶, d̶d̶x̶, dftd3,
                d̶f̶t̶d̶4̶, dkh, ecpint, einsums, f̶o̶r̶t̶e̶, gauxc, g̶c̶p̶, g̶d̶m̶a̶,
                g̶e̶o̶m̶e̶t̶r̶i̶c̶, g̶p̶u̶_̶d̶f̶c̶c̶, i̶n̶t̶e̶g̶r̶a̶t̶o̶r̶x̶x̶, i̶p̶i̶,
                l̶i̶b̶e̶f̶p̶, m̶d̶i̶, m̶p̶2̶d̶, m̶r̶c̶c̶, ooo, o̶p̶e̶n̶f̶e̶r̶m̶i̶o̶n̶p̶s̶i̶4̶,
                pcmsolver, p̶s̶i̶4̶f̶o̶c̶k̶c̶i̶, p̶s̶i̶x̶a̶s̶, p̶y̶e̶i̶n̶s̶u̶m̶s̶, r̶e̶s̶p̶,
                s̶i̶m̶i̶n̶t̶, s̶n̶s̶m̶p̶2̶, v̶2̶r̶d̶m̶_̶c̶a̶s̶s̶c̶f̶

  ==> Input File <==

--------------------------------------------------------------------------
memory 3 GB
molecule mol {
0 1
C 0.00000000000000 2.53299582020724 0.30165897872530
C 0.00000000000000 1.27182790970979 -0.55188196087724
C 0.00000000000000 0.00000000000000 0.28527997988693
C 0.00000000000000 -1.27182790970979 -0.55188196087724
C 0.00000000000000 -2.53299582020724 0.30165897872530
H 0.00000000000000 3.43387075643216 -0.30988997799567
H 0.87444293777327 -1.26924390987173 -1.20653691424964
H -0.87444293777327 -1.26924390987173 -1.20653691424964
H 0.87962693765154 2.56514081794452 0.94437193282808
H -0.87962693765154 2.56514081794452 0.94437193282808
H -0.87513293775952 0.00000000000000 0.94180293304724
H 0.87513293775952 0.00000000000000 0.94180293304724
H -0.87444293777327 1.26924390987173 -1.20653691424964
H 0.87444293777327 1.26924390987173 -1.20653691424964
H 0.00000000000000 -3.43387075643216 -0.30988997799567
H 0.87962693765154 -2.56514081794452 0.94437193282808
H -0.87962693765154 -2.56514081794452 0.94437193282808
units angstrom
no_reorient
no_com
}
set basis def2-TZVP
set scf_type df
set freeze_core true
set e_convergence 8
energy('b3lyp-d3bj')
--------------------------------------------------------------------------

  Memory set to   2.794 GiB by Python driver.

Scratch directory: /Users/hoyoun/Documents/Yonsei_AX_Camp/(진짜_이게_최종)/calibration/dft_work/_scratch/P_TT/
   => Libint2 <=

    Primary   basis highest AM E, G, H:  7, 6, 3
    Auxiliary basis highest AM E, G, H:  7, 7, 4
    Onebody   basis highest AM E, G, H:  -, -, -
    Solid Harmonics ordering:            Gaussian

*** tstart() called on choehoyun-ui-MacBookAir.local
*** at Sun Aug  9 02:03:36 2026

   => Loading Basis Set <=

    Name: DEF2-TZVP
    Role: ORBITAL
    Keyword: BASIS
    atoms 1-5  entry C          line   123 file /Users/hoyoun/micromamba/envs/psi4env/share/psi4/basis/def2-tzvp.gbs 
    atoms 6-17 entry H          line    15 file /Users/hoyoun/micromamba/envs/psi4env/share/psi4/basis/def2-tzvp.gbs 

   => B3LYP-D3(BJ): Empirical Dispersion <=

    Grimme's -D3 (BJ-damping) Dispersion Correction
    Grimme S.; Ehrlich S.; Goerigk L. (2011), J. Comput. Chem., 32: 1456

        s6 =       1.000000
        s8 =       1.988900
        a1 =       0.398100
        a2 =       4.421100


         ---------------------------------------------------------
                                   SCF
               by Justin Turney, Rob Parrish, Andy Simmonett
                          and Daniel G. A. Smith
                              RKS Reference
                        8 Threads,   2861 MiB Core
         ---------------------------------------------------------

  ==> Geometry <==

    Molecular point group: c2v
    Full point group: C2v

    Geometry (in Angstrom), charge = 0, multiplicity = 1:

       Center              X                  Y                   Z               Mass       
    ------------   -----------------  -----------------  -----------------  -----------------
         C           -0.000000000000     2.532995820207     0.301658978725    12.000000000000
         C           -0.000000000000     1.271827909710    -0.551881960877    12.000000000000
         C            0.000000000000     0.000000000000     0.285279979887    12.000000000000
         C            0.000000000000    -1.271827909710    -0.551881960877    12.000000000000
         C            0.000000000000    -2.532995820207     0.301658978725    12.000000000000
         H           -0.000000000000     3.433870756432    -0.309889977996     1.007825032230
         H            0.874442937773    -1.269243909872    -1.206536914250     1.007825032230
         H           -0.874442937773    -1.269243909872    -1.206536914250     1.007825032230
         H            0.879626937652     2.565140817945     0.944371932828     1.007825032230
         H           -0.879626937652     2.565140817945     0.944371932828     1.007825032230
         H           -0.875132937760    -0.000000000000     0.941802933047     1.007825032230
         H            0.875132937760     0.000000000000     0.941802933047     1.007825032230
         H           -0.874442937773     1.269243909872    -1.206536914250     1.007825032230
         H            0.874442937773     1.269243909872    -1.206536914250     1.007825032230
         H            0.000000000000    -3.433870756432    -0.309889977996     1.007825032230
         H            0.879626937652    -2.565140817945     0.944371932828     1.007825032230
         H           -0.879626937652    -2.565140817945     0.944371932828     1.007825032230

  Running in c2v symmetry.

  Rotational constants: A =      0.56834  B =      0.06551  C =      0.06209 [cm^-1]
  Rotational constants: A =  17038.52470  B =   1963.85927  C =   1861.36542 [MHz]
  Nuclear repulsion =  185.654461455532356

  Charge       = 0
  Multiplicity = 1
  Electrons    = 42
  Nalpha       = 21
  Nbeta        = 21

  ==> Algorithm <==

  SCF Algorithm Type is DF.
  DIIS enabled.
  MOM disabled.
  Fractional occupation disabled.
  Guess Type is SAD.
  Energy threshold   = 1.00e-08
  Density threshold  = 1.00e-06
  Integral threshold = 1.00e-12

  ==> Primary Basis <==

  Basis Set: DEF2-TZVP
    Blend: DEF2-TZVP
    Number of shells: 103
    Number of basis functions: 227
    Number of Cartesian functions: 252
    Spherical Harmonics?: true
    Max angular momentum: 3

  ==> DFT Potential <==

   => LibXC <=

    Version 7.1.2
    S. Lehtola, C. Steigemann, M. J. T. Oliveira, and M. A. L. Marques,  SoftwareX 7, 1–5 (2018) (10.1016/j.softx.2017.11.002)

   => Composite Functional: B3LYP-D3BJ2B <= 

    B3LYP-d3bj2b Hyb-GGA Exchange-Correlation Functional

    P. J. Stephens, F. J. Devlin, C. F. Chabalowski, and M. J. Frisch,  J. Phys. Chem. 98, 11623 (1994) (10.1021/j100096a001)

    Deriv               =              1
    GGA                 =           TRUE
    Meta                =          FALSE

    Exchange Hybrid     =           TRUE
    MP2 Hybrid          =          FALSE

   => Exchange Functionals <=

    0.0800   Slater exchange
    0.7200         Becke 88

   => Exact (HF) Exchange <=

    0.2000               HF 

   => Correlation Functionals <=

    0.1900   Vosko, Wilk & Nusair (VWN5_RPA)
    0.8100   Lee, Yang & Parr

   => LibXC Density Thresholds  <==

    XC_HYB_GGA_XC_B3LYP:  1.00E-15 

   => Molecular Quadrature <=

    Radial Scheme          =       TREUTLER
    Pruning Scheme         =           NONE
    Nuclear Scheme         =       TREUTLER

    Blocking Scheme        =         OCTREE
    BS radius alpha        =              1
    Pruning alpha          =              1
    Radial Points          =             75
    Spherical Points       =            302
    Total Points           =         361005
    Total Blocks           =           2667
    Max Points             =            256
    Max Functions          =            218
    Weights Tolerance      =       1.00E-15

   => Loading Basis Set <=

    Name: (DEF2-TZVP AUX)
    Role: JKFIT
    Keyword: DF_BASIS_SCF
    atoms 1-5  entry C          line   198 file /Users/hoyoun/micromamba/envs/psi4env/share/psi4/basis/def2-universal-jkfit.gbs 
    atoms 6-17 entry H          line    18 file /Users/hoyoun/micromamba/envs/psi4env/share/psi4/basis/def2-universal-jkfit.gbs 

  ==> Integral Setup <==

  DFHelper Memory: AOs need 0.229 GiB; user supplied 0.299 GiB. 
  SCF_SUBTYPE=INCORE selected. In-core MEM_DF algorithm will be used.
  Using in-core AOs.

  ==> MemDFJK: Density-Fitted J/K Matrices <==

    J tasked:                   Yes
    K tasked:                   Yes
    wK tasked:                   No
    OpenMP threads:               8
    Memory [MiB]:               306
    Algorithm:                 Core
    Schwarz Cutoff:           1E-12
    Mask sparsity (%):       5.9229
    Fitting Condition:        1E-10

   => Auxiliary Basis Set <=

  Basis Set: (DEF2-TZVP AUX)
    Blend: DEF2-UNIVERSAL-JKFIT
    Number of shells: 197
    Number of basis functions: 591
    Number of Cartesian functions: 685
    Spherical Harmonics?: true
    Max angular momentum: 4

  Cached 100.0% of DFT collocation blocks in 1.797 [GiB].

  Minimum eigenvalue in the overlap matrix is 1.4118353672E-04.
  Reciprocal condition number of the overlap matrix is 1.7370780737E-05.
    Using symmetric orthogonalization.

  ==> Pre-Iterations <==

  SCF Guess: Superposition of Atomic Densities via on-the-fly atomic UHF (no occupation information).

   -------------------------
    Irrep   Nso     Nmo    
   -------------------------
     A1        78      78 
     A2        37      37 
     B1        45      45 
     B2        67      67 
   -------------------------
    Total     227     227
   -------------------------

  ==> Iterations <==

                           Total Energy        Delta E     RMS |[F,P]|

   @DF-RKS iter SAD:  -197.10469436070983   -1.97105e+02   0.00000e+00 
   @DF-RKS iter   1:  -197.08014641175541    2.45479e-02   1.04500e-02 ADIIS/DIIS
   @DF-RKS iter   2:  -196.41563270499390    6.64514e-01   1.35513e-02 ADIIS/DIIS
   @DF-RKS iter   3:  -197.86185832196654   -1.44623e+00   9.11533e-04 ADIIS/DIIS
   @DF-RKS iter   4:  -197.86457068796287   -2.71237e-03   7.00778e-04 ADIIS/DIIS
   @DF-RKS iter   5:  -197.86783474219132   -3.26405e-03   1.06981e-04 ADIIS/DIIS
   @DF-RKS iter   6:  -197.86790787826877   -7.31361e-05   1.89490e-05 DIIS
   @DF-RKS iter   7:  -197.86791036851201   -2.49024e-06   5.06247e-06 DIIS
   @DF-RKS iter   8:  -197.86791051888775   -1.50376e-07   1.53295e-06 DIIS
   @DF-RKS iter   9:  -197.86791053387194   -1.49842e-08   2.94131e-07 DIIS
   @DF-RKS iter  10:  -197.86791053454257   -6.70639e-10   1.42878e-08 DIIS
  Energy and wave function converged.


  ==> Post-Iterations <==

   Electrons on quadrature grid:
      Ntotal   =   42.0001752661 ; deviation = 1.753e-04 

    Orbital Energies [Eh]
    ---------------------

    Doubly Occupied:                                                      

       1A1   -10.161080     1B2   -10.161079     2A1   -10.158897  
       2B2   -10.154866     3A1   -10.154866     4A1    -0.804976  
       3B2    -0.753007     5A1    -0.677088     4B2    -0.599916  
       6A1    -0.576682     1B1    -0.479106     5B2    -0.440689  
       1A2    -0.434677     7A1    -0.406206     8A1    -0.396582  
       2B1    -0.379008     6B2    -0.355479     2A2    -0.337117  
       9A1    -0.329539     3B1    -0.323460     7B2    -0.317775  

    Virtual:                                                              

      10A1     0.033464     8B2     0.049323    11A1     0.067176  
       4B1     0.072061    12A1     0.088391     9B2     0.110300  
       3A2     0.121894    13A1     0.122416     5B1     0.123689  
      10B2     0.127078     4A2     0.134695    14A1     0.160979  
       6B1     0.165121    11B2     0.173626    15A1     0.177695  
      12B2     0.199518    16A1     0.220444     7B1     0.227120  
       5A2     0.252981    17A1     0.264672    13B2     0.271913  
       8B1     0.298320    14B2     0.305400     6A2     0.306632  
      18A1     0.316818    19A1     0.365649    15B2     0.390422  
      20A1     0.391712     9B1     0.406820    16B2     0.419777  
      10B1     0.437142    17B2     0.441959    21A1     0.450196  
      18B2     0.453886     7A2     0.458034    22A1     0.467545  
      23A1     0.470535    19B2     0.478434    11B1     0.487545  
      24A1     0.495409     8A2     0.498391    20B2     0.522178  
      12B1     0.523722    25A1     0.582881    21B2     0.591694  
      26A1     0.613638    27A1     0.625855    22B2     0.677793  
       9A2     0.705662    28A1     0.734417    29A1     0.810070  
      23B2     0.812506    13B1     0.823556    10A2     0.838296  
      30A1     0.858777    14B1     0.878052    24B2     0.888604  
      25B2     0.976961    11A2     0.982590    15B1     0.998330  
      31A1     1.020419    26B2     1.034623    32A1     1.062198  
      12A2     1.080481    16B1     1.093671    33A1     1.106142  
      27B2     1.123050    17B1     1.165475    13A2     1.178398  
      34A1     1.191899    28B2     1.237480    35A1     1.298222  
      29B2     1.299099    36A1     1.441844    37A1     1.500650  
      14A2     1.501852    30B2     1.515098    18B1     1.524815  
      19B1     1.539519    20B1     1.542894    15A2     1.543595  
      31B2     1.560811    38A1     1.579280    16A2     1.598626  
      21B1     1.609092    39A1     1.614722    32B2     1.634465  
      33B2     1.665483    22B1     1.746344    40A1     1.760189  
      17A2     1.803672    34B2     1.815289    41A1     1.834679  
      23B1     1.846628    18A2     1.849571    35B2     1.874284  
      42A1     1.922409    43A1     1.925700    36B2     1.927768  
      24B1     1.951264    19A2     1.963370    44A1     1.972148  
      37B2     2.087601    45A1     2.089317    38B2     2.135527  
      25B1     2.171574    46A1     2.239675    39B2     2.243853  
      40B2     2.294266    26B1     2.329569    20A2     2.331580  
      47A1     2.341950    48A1     2.357872    41B2     2.361089  
      42B2     2.412516    21A2     2.415299    49A1     2.427323  
      50A1     2.455822    27B1     2.476260    43B2     2.491997  
      22A2     2.533538    28B1     2.534783    29B1     2.561441  
      51A1     2.576093    44B2     2.592630    23A2     2.598288  
      52A1     2.620112    30B1     2.631251    53A1     2.632999  
      24A2     2.661313    25A2     2.678629    45B2     2.706998  
      31B1     2.719293    54A1     2.735113    32B1     2.735134  
      46B2     2.753728    55A1     2.766612    56A1     2.803404  
      47B2     2.856321    48B2     2.890887    57A1     2.988409  
      26A2     3.020390    33B1     3.031572    49B2     3.049540  
      58A1     3.089552    50B2     3.107584    34B1     3.128848  
      51B2     3.162735    27A2     3.194299    59A1     3.199547  
      60A1     3.220953    52B2     3.236242    28A2     3.237852  
      61A1     3.260895    62A1     3.306834    35B1     3.307607  
      63A1     3.329329    53B2     3.338197    36B1     3.378079  
      29A2     3.393007    30A2     3.424199    37B1     3.447665  
      54B2     3.453379    64A1     3.459239    38B1     3.518786  
      31A2     3.537735    55B2     3.545357    32A2     3.605700  
      39B1     3.612350    65A1     3.631635    56B2     3.645377  
      66A1     3.671530    33A2     3.717577    40B1     3.836250  
      57B2     3.884047    41B1     3.890917    34A2     3.893249  
      42B1     3.905229    67A1     3.912730    58B2     3.981049  
      35A2     3.993229    68A1     4.023755    59B2     4.147210  
      69A1     4.155295    70A1     4.253699    60B2     4.282923  
      43B1     4.315690    61B2     4.365056    71A1     4.393240  
      36A2     4.418432    44B1     4.551083    62B2     4.555705  
      45B1     4.598942    72A1     4.602311    37A2     4.604730  
      63B2     4.608227    73A1     4.684611    74A1     4.780901  
      64B2     4.825048    75A1     5.053169    65B2     5.072603  
      76A1    22.275978    66B2    22.326052    77A1    22.388379  
      67B2    22.475022    78A1    22.477484  

    Final Occupation by Irrep:
             A1    A2    B1    B2 
    DOCC [     9,    2,    3,    7 ]
    NA   [     9,    2,    3,    7 ]
    NB   [     9,    2,    3,    7 ]

  @DF-RKS Final Energy:  -197.86791053454257

   => Energetics <=

    Nuclear Repulsion Energy =            185.6544614555323562
    One-Electron Energy =                -631.7431508689430757
    Two-Electron Energy =                 273.9115547549727125
    DFT Exchange-Correlation Energy =     -25.6713451373722918
    Empirical Dispersion Energy =          -0.0194307387322473
    VV10 Nonlocal Energy =                  0.0000000000000000
    Total Energy =                       -197.8679105345425739

Computation Completed


Properties will be evaluated at   0.000000,   0.000000,   0.000000 [a0]

Properties computed using the SCF density matrix


 Multipole Moments:

 ------------------------------------------------------------------------------------
     Multipole            Electronic (a.u.)      Nuclear  (a.u.)        Total (a.u.)
 ------------------------------------------------------------------------------------

 L = 1.  Multiply by 2.5417464519 to convert [e a0] to [Debye]
 Dipole X            :          0.0000000            0.0000000            0.0000000
 Dipole Y            :          0.0000000            0.0000000            0.0000000
 Dipole Z            :          1.9965833           -2.0330239           -0.0364406
 Magnitude           :                                                    0.0364406

 ------------------------------------------------------------------------------------

*** tstop() called on choehoyun-ui-MacBookAir.local at Sun Aug  9 02:03:41 2026
Module time:
	user time   =      28.54 seconds =       0.48 minutes
	system time =       0.72 seconds =       0.01 minutes
	total time  =          5 seconds =       0.08 minutes
Total time:
	user time   =      28.54 seconds =       0.48 minutes
	system time =       0.72 seconds =       0.01 minutes
	total time  =          5 seconds =       0.08 minutes

    Psi4 stopped on: Sunday, 09 August 2026 02:03AM
    Psi4 wall time for execution: 0:00:04.58

*** Psi4 exiting successfully. Buy a developer a beer!
