
    -----------------------------------------------------------------------
          Psi4: An Open-Source Ab Initio Electronic Structure Package
                               Psi4 1.11 release

                         Git: Rev {} zzzzzzz 


    D. G. A. Smith, L. A. Burns, A. C. Simmonett, R. M. Parrish,
    M. C. Schieber, R. Galvelis, P. Kraus, H. Kruse, R. Di Remigio,
    A. Alenaizan, A. M. James, S. Lehtola, J. P. Misiewicz, M. Scheurer,
    R. A. Shaw, J. B. Schriber, Y. Xie, Z. L. Glick, D. A. Sirianni,
    J. S. O'Brien, J. M. Waldrop, A. Kumar, E. G. Hohenstein,
    B. P. Pritchard, B. R. Brooks, H. F. Schaefer III, A. Yu. Sokolov,
    K. Patkowski, A. E. DePrince III, U. Bozkaya, R. A. King,
    F. A. Evangelista, J. M. Turney, T. D. Crawford, C. D. Sherrill,
    J. Chem. Phys. 152(18) 184108 (2020). https://doi.org/10.1063/5.0006002

                            Additional Code Authors
    E. T. Seidl, C. L. Janssen, E. F. Valeev, M. L. Leininger,
    J. F. Gonthier, R. M. Richard, H. R. McAlexander, M. Saitow, X. Wang,
    P. Verma, M. H. Lechner, A. Jiang, S. Behnle, A. G. Heide,
    M. F. Herbst, D. L. Poole, T. Győri, E. C. Mitchell, J. P. Pederson,
    and A. M. Wallace

             Previous Authors, Complete List of Code Contributors,
                       and Citations for Specific Modules
    https://github.com/psi4/psi4/blob/master/codemeta.json
    https://github.com/psi4/psi4/graphs/contributors
    https://psicode.org/psi4manual/master/introduction.html#citing-psifour

    -----------------------------------------------------------------------


    Psi4 started on: Sunday, 09 August 2026 03:38PM

    Process ID: 60465
    Host:       choehoyun-ui-MacBookAir.local
    PSIDATADIR: /Users/hoyoun/micromamba/envs/psi4env/share/psi4
    Memory:     500.0 MiB
    Threads:    8
    Addons:     a̶d̶c̶c̶, a̶m̶b̶i̶t̶, b̶s̶e̶, c̶c̶t̶3̶, c̶f̶o̶u̶r̶, c̶h̶e̶m̶p̶s̶2̶, c̶p̶p̶e̶, d̶d̶x̶, dftd3,
                d̶f̶t̶d̶4̶, dkh, ecpint, einsums, f̶o̶r̶t̶e̶, gauxc, g̶c̶p̶, g̶d̶m̶a̶,
                g̶e̶o̶m̶e̶t̶r̶i̶c̶, g̶p̶u̶_̶d̶f̶c̶c̶, i̶n̶t̶e̶g̶r̶a̶t̶o̶r̶x̶x̶, i̶p̶i̶,
                l̶i̶b̶e̶f̶p̶, m̶d̶i̶, m̶p̶2̶d̶, m̶r̶c̶c̶, ooo, o̶p̶e̶n̶f̶e̶r̶m̶i̶o̶n̶p̶s̶i̶4̶,
                pcmsolver, p̶s̶i̶4̶f̶o̶c̶k̶c̶i̶, p̶s̶i̶x̶a̶s̶, p̶y̶e̶i̶n̶s̶u̶m̶s̶, r̶e̶s̶p̶,
                s̶i̶m̶i̶n̶t̶, s̶n̶s̶m̶p̶2̶, v̶2̶r̶d̶m̶_̶c̶a̶s̶s̶c̶f̶

  ==> Input File <==

--------------------------------------------------------------------------
memory 3 GB
molecule mol {
0 1
O -2.28983784910791 1.62324325123249 0.37259459642842
C -3.41983785466952 1.88324325251215 0.02659459472548
O -3.99983785752415 3.08324325841828 0.22459459570000
H -3.34083785428070 3.62924326110557 0.67859459793448
C -4.36383785931568 0.94024324787091 -0.69240540881327
H -4.57683786036402 1.35224324989868 -1.67640541365630
H -5.29583786390277 0.90824324771342 -0.13240540605708
N -3.81683785662347 -0.38075675863076 -0.80640540937436
H -3.05983785289768 -0.52575675934441 -1.46840541263257
C -3.73283785621004 -1.12575676229748 0.33759459625616
O -4.37583785937474 -0.88275676110148 1.34959460123700
C -2.69383785109631 -2.23375676775081 0.26059459587718
H -2.72883785126857 -2.74575677027076 -0.69940540884772
H -2.86583785194285 -2.93675677121081 1.06859459985398
N -1.38383784464878 -1.62875676477313 0.41159459662037
H -1.04983784300490 -1.35375676341964 1.32759460112872
C -0.79083784173016 -0.98275676159366 -0.61340540842445
O -1.19283784370872 -1.02675676181022 -1.77940541416325
C 0.46416216444667 -0.21875675783342 -0.23240540654925
N 0.41216216419073 0.17024324408114 1.17259460036584
H 1.32216216866955 0.51324324576931 1.45959460177839
H -0.24783783905764 0.93424324784138 1.28059460089739
H 0.51616216470260 0.62524324632055 -0.92540540996005
C 1.67816217042171 -1.12475676229256 -0.48140540777478
H 1.59716217002304 -1.99475676657450 0.17159459543915
H 1.63416217020515 -1.46775676398073 -1.51640541286882
C 2.96316217674619 -0.39475675869966 -0.22040540649020
C 3.64616218010776 -0.54875675945761 0.98859459946024
H 3.26516217823256 -1.24575676288809 1.72559460308759
C 4.80916218583179 0.17424324410083 1.24959460074482
H 5.32816218838620 0.03924324343639 2.18959460537129
C 5.30516218827299 1.06324324847629 0.29959459606913
H 6.20916219272228 1.62224325122756 0.49759459704364
C 4.63316218496555 1.22424324926870 -0.91240540989606
H 5.01716218685552 1.90724325263027 -1.65740541356278
C 3.47116217924645 0.50124324571025 -1.16740541115112
H 2.95416217670189 0.62424324631563 -2.11140541579727
units angstrom
no_reorient
no_com
}
set basis def2-TZVP
set scf_type df
set freeze_core true
set e_convergence 8
energy('b3lyp-d3bj')
--------------------------------------------------------------------------

  Memory set to   2.794 GiB by Python driver.

Scratch directory: /Users/hoyoun/Documents/Yonsei_AX_Camp/(진짜_이게_최종)/calibration/dft_work/_scratch/366/
   => Libint2 <=

    Primary   basis highest AM E, G, H:  7, 6, 3
    Auxiliary basis highest AM E, G, H:  7, 7, 4
    Onebody   basis highest AM E, G, H:  -, -, -
    Solid Harmonics ordering:            Gaussian

*** tstart() called on choehoyun-ui-MacBookAir.local
*** at Sun Aug  9 15:38:06 2026

   => Loading Basis Set <=

    Name: DEF2-TZVP
    Role: ORBITAL
    Keyword: BASIS
    atoms 1, 3, 11, 18                                           entry O          line   189 file /Users/hoyoun/micromamba/envs/psi4env/share/psi4/basis/def2-tzvp.gbs 
    atoms 2, 5, 10, 12, 17, 19, 24, 27-28, 30, 32, 34, 36        entry C          line   123 file /Users/hoyoun/micromamba/envs/psi4env/share/psi4/basis/def2-tzvp.gbs 
    atoms 4, 6-7, 9, 13-14, 16, 21-23, 25-26, 29, 31, 33, 35, 37 entry H          line    15 file /Users/hoyoun/micromamba/envs/psi4env/share/psi4/basis/def2-tzvp.gbs 
    atoms 8, 15, 20                                              entry N          line   156 file /Users/hoyoun/micromamba/envs/psi4env/share/psi4/basis/def2-tzvp.gbs 

   => B3LYP-D3(BJ): Empirical Dispersion <=

    Grimme's -D3 (BJ-damping) Dispersion Correction
    Grimme S.; Ehrlich S.; Goerigk L. (2011), J. Comput. Chem., 32: 1456

        s6 =       1.000000
        s8 =       1.988900
        a1 =       0.398100
        a2 =       4.421100


         ---------------------------------------------------------
                                   SCF
               by Justin Turney, Rob Parrish, Andy Simmonett
                          and Daniel G. A. Smith
                              RKS Reference
                        8 Threads,   2861 MiB Core
         ---------------------------------------------------------

  ==> Geometry <==

    Molecular point group: c1
    Full point group: C1

    Geometry (in Angstrom), charge = 0, multiplicity = 1:

       Center              X                  Y                   Z               Mass       
    ------------   -----------------  -----------------  -----------------  -----------------
         O           -2.289837849108     1.623243251232     0.372594596428    15.994914619570
         C           -3.419837854670     1.883243252512     0.026594594725    12.000000000000
         O           -3.999837857524     3.083243258418     0.224594595700    15.994914619570
         H           -3.340837854281     3.629243261106     0.678594597934     1.007825032230
         C           -4.363837859316     0.940243247871    -0.692405408813    12.000000000000
         H           -4.576837860364     1.352243249899    -1.676405413656     1.007825032230
         H           -5.295837863903     0.908243247713    -0.132405406057     1.007825032230
         N           -3.816837856623    -0.380756758631    -0.806405409374    14.003074004430
         H           -3.059837852898    -0.525756759344    -1.468405412633     1.007825032230
         C           -3.732837856210    -1.125756762297     0.337594596256    12.000000000000
         O           -4.375837859375    -0.882756761101     1.349594601237    15.994914619570
         C           -2.693837851096    -2.233756767751     0.260594595877    12.000000000000
         H           -2.728837851269    -2.745756770271    -0.699405408848     1.007825032230
         H           -2.865837851943    -2.936756771211     1.068594599854     1.007825032230
         N           -1.383837844649    -1.628756764773     0.411594596620    14.003074004430
         H           -1.049837843005    -1.353756763420     1.327594601129     1.007825032230
         C           -0.790837841730    -0.982756761594    -0.613405408424    12.000000000000
         O           -1.192837843709    -1.026756761810    -1.779405414163    15.994914619570
         C            0.464162164447    -0.218756757833    -0.232405406549    12.000000000000
         N            0.412162164191     0.170243244081     1.172594600366    14.003074004430
         H            1.322162168670     0.513243245769     1.459594601778     1.007825032230
         H           -0.247837839058     0.934243247841     1.280594600897     1.007825032230
         H            0.516162164703     0.625243246321    -0.925405409960     1.007825032230
         C            1.678162170422    -1.124756762293    -0.481405407775    12.000000000000
         H            1.597162170023    -1.994756766575     0.171594595439     1.007825032230
         H            1.634162170205    -1.467756763981    -1.516405412869     1.007825032230
         C            2.963162176746    -0.394756758700    -0.220405406490    12.000000000000
         C            3.646162180108    -0.548756759458     0.988594599460    12.000000000000
         H            3.265162178233    -1.245756762888     1.725594603088     1.007825032230
         C            4.809162185832     0.174243244101     1.249594600745    12.000000000000
         H            5.328162188386     0.039243243436     2.189594605371     1.007825032230
         C            5.305162188273     1.063243248476     0.299594596069    12.000000000000
         H            6.209162192722     1.622243251228     0.497594597044     1.007825032230
         C            4.633162184966     1.224243249269    -0.912405409896    12.000000000000
         H            5.017162186856     1.907243252630    -1.657405413563     1.007825032230
         C            3.471162179246     0.501243245710    -1.167405411151    12.000000000000
         H            2.954162176702     0.624243246316    -2.111405415797     1.007825032230

  Running in c1 symmetry.

  Rotational constants: A =      0.02314  B =      0.00514  C =      0.00473 [cm^-1]
  Rotational constants: A =    693.59830  B =    154.20952  C =    141.66021 [MHz]
  Nuclear repulsion = 1567.406482725752539

  Charge       = 0
  Multiplicity = 1
  Electrons    = 148
  Nalpha       = 74
  Nbeta        = 74

  ==> Algorithm <==

  SCF Algorithm Type is DF.
  DIIS enabled.
  MOM disabled.
  Fractional occupation disabled.
  Guess Type is SAD.
  Energy threshold   = 1.00e-08
  Density threshold  = 1.00e-06
  Integral threshold = 1.00e-12

  ==> Primary Basis <==

  Basis Set: DEF2-TZVP
    Blend: DEF2-TZVP
    Number of shells: 288
    Number of basis functions: 722
    Number of Cartesian functions: 822
    Spherical Harmonics?: true
    Max angular momentum: 3

  ==> DFT Potential <==

   => LibXC <=

    Version 7.1.2
    S. Lehtola, C. Steigemann, M. J. T. Oliveira, and M. A. L. Marques,  SoftwareX 7, 1–5 (2018) (10.1016/j.softx.2017.11.002)

   => Composite Functional: B3LYP-D3BJ2B <= 

    B3LYP-d3bj2b Hyb-GGA Exchange-Correlation Functional

    P. J. Stephens, F. J. Devlin, C. F. Chabalowski, and M. J. Frisch,  J. Phys. Chem. 98, 11623 (1994) (10.1021/j100096a001)

    Deriv               =              1
    GGA                 =           TRUE
    Meta                =          FALSE

    Exchange Hybrid     =           TRUE
    MP2 Hybrid          =          FALSE

   => Exchange Functionals <=

    0.0800   Slater exchange
    0.7200         Becke 88

   => Exact (HF) Exchange <=

    0.2000               HF 

   => Correlation Functionals <=

    0.1900   Vosko, Wilk & Nusair (VWN5_RPA)
    0.8100   Lee, Yang & Parr

   => LibXC Density Thresholds  <==

    XC_HYB_GGA_XC_B3LYP:  1.00E-15 

   => Molecular Quadrature <=

    Radial Scheme          =       TREUTLER
    Pruning Scheme         =           NONE
    Nuclear Scheme         =       TREUTLER

    Blocking Scheme        =         OCTREE
    BS radius alpha        =              1
    Pruning alpha          =              1
    Radial Points          =             75
    Spherical Points       =            302
    Total Points           =         762749
    Total Blocks           =           5419
    Max Points             =            256
    Max Functions          =            493
    Weights Tolerance      =       1.00E-15

   => Loading Basis Set <=

    Name: (DEF2-TZVP AUX)
    Role: JKFIT
    Keyword: DF_BASIS_SCF
    atoms 1, 3, 11, 18                                           entry O          line   318 file /Users/hoyoun/micromamba/envs/psi4env/share/psi4/basis/def2-universal-jkfit.gbs 
    atoms 2, 5, 10, 12, 17, 19, 24, 27-28, 30, 32, 34, 36        entry C          line   198 file /Users/hoyoun/micromamba/envs/psi4env/share/psi4/basis/def2-universal-jkfit.gbs 
    atoms 4, 6-7, 9, 13-14, 16, 21-23, 25-26, 29, 31, 33, 35, 37 entry H          line    18 file /Users/hoyoun/micromamba/envs/psi4env/share/psi4/basis/def2-universal-jkfit.gbs 
    atoms 8, 15, 20                                              entry N          line   258 file /Users/hoyoun/micromamba/envs/psi4env/share/psi4/basis/def2-universal-jkfit.gbs 

  ==> Integral Setup <==

  ==> DiskDFJK: Density-Fitted J/K Matrices <==

    J tasked:                  Yes
    K tasked:                  Yes
    wK tasked:                  No
    OpenMP threads:              8
    Integrals threads:           8
    Memory [MiB]:             1931
    Algorithm:                Disk
    Integral Cache:           NONE
    Schwarz Cutoff:          1E-12
    Fitting Condition:       1E-10

   => Auxiliary Basis Set <=

  Basis Set: (DEF2-TZVP AUX)
    Blend: DEF2-UNIVERSAL-JKFIT
    Number of shells: 602
    Number of basis functions: 1820
    Number of Cartesian functions: 2148
    Spherical Harmonics?: true
    Max angular momentum: 4

  Cached 3.0% of DFT collocation blocks in 0.213 [GiB].

  Minimum eigenvalue in the overlap matrix is 8.1816557167E-06.
  Reciprocal condition number of the overlap matrix is 7.7246633133E-07.
    Using symmetric orthogonalization.

  ==> Pre-Iterations <==

  SCF Guess: Superposition of Atomic Densities via on-the-fly atomic UHF (no occupation information).

   -------------------------
    Irrep   Nso     Nmo    
   -------------------------
     A        722     722 
   -------------------------
    Total     722     722
   -------------------------

  ==> Iterations <==

                           Total Energy        Delta E     RMS |[F,P]|

   @DF-RKS iter SAD:  -970.41006744113133   -9.70410e+02   0.00000e+00 
   @DF-RKS iter   1:  -969.82371749471520    5.86350e-01   2.52567e-03 DIIS/ADIIS
   @DF-RKS iter   2:  -968.78733668249674    1.03638e+00   3.26807e-03 DIIS/ADIIS
   @DF-RKS iter   3:  -971.23985704527331   -2.45252e+00   5.07130e-04 DIIS/ADIIS
   @DF-RKS iter   4:  -971.27495776359763   -3.51007e-02   3.11034e-04 DIIS/ADIIS
   @DF-RKS iter   5:  -971.29304433249729   -1.80866e-02   8.42501e-05 DIIS
   @DF-RKS iter   6:  -971.29437757379185   -1.33324e-03   2.34940e-05 DIIS
   @DF-RKS iter   7:  -971.29448614675448   -1.08573e-04   7.23995e-06 DIIS
   @DF-RKS iter   8:  -971.29449589905312   -9.75230e-06   3.21752e-06 DIIS
   @DF-RKS iter   9:  -971.29449811887503   -2.21982e-06   8.10606e-07 DIIS
   @DF-RKS iter  10:  -971.29449823912250   -1.20247e-07   2.80709e-07 DIIS
   @DF-RKS iter  11:  -971.29449825445033   -1.53278e-08   1.18603e-07 DIIS
   @DF-RKS iter  12:  -971.29449825776999   -3.31966e-09   3.03263e-08 DIIS
  Energy and wave function converged.


  ==> Post-Iterations <==

   Electrons on quadrature grid:
      Ntotal   =  148.0000365443 ; deviation = 3.654e-05 

    Orbital Energies [Eh]
    ---------------------

    Doubly Occupied:                                                      

       1A    -19.196075     2A    -19.139921     3A    -19.099954  
       4A    -19.099132     5A    -14.346734     6A    -14.339397  
       7A    -14.307149     8A    -10.326223     9A    -10.274761  
      10A    -10.274150    11A    -10.230413    12A    -10.218354  
      13A    -10.213651    14A    -10.190872    15A    -10.183463  
      16A    -10.183340    17A    -10.183007    18A    -10.181616  
      19A    -10.181427    20A    -10.181136    21A     -1.132530  
      22A     -1.051663    23A     -1.043174    24A     -1.039204  
      25A     -0.941321    26A     -0.933447    27A     -0.903328  
      28A     -0.866107    29A     -0.790424    30A     -0.776218  
      31A     -0.755399    32A     -0.741805    33A     -0.718812  
      34A     -0.655141    35A     -0.637811    36A     -0.616956  
      37A     -0.593035    38A     -0.585495    39A     -0.582328  
      40A     -0.545306    41A     -0.532429    42A     -0.525976  
      43A     -0.519348    44A     -0.513759    45A     -0.501005  
      46A     -0.486465    47A     -0.480747    48A     -0.478315  
      49A     -0.471995    50A     -0.462869    51A     -0.447553  
      52A     -0.434766    53A     -0.431653    54A     -0.430415  
      55A     -0.423723    56A     -0.411360    57A     -0.409350  
      58A     -0.400758    59A     -0.396207    60A     -0.389079  
      61A     -0.384902    62A     -0.376370    63A     -0.362579  
      64A     -0.349821    65A     -0.349577    66A     -0.348817  
      67A     -0.312194    68A     -0.289646    69A     -0.278969  
      70A     -0.275144    71A     -0.266592    72A     -0.259700  
      73A     -0.256885    74A     -0.251695  

    Virtual:                                                              

      75A     -0.025947    76A     -0.021783    77A     -0.018297  
      78A     -0.004166    79A      0.014942    80A      0.020147  
      81A      0.036909    82A      0.047645    83A      0.052938  
      84A      0.057919    85A      0.064284    86A      0.072087  
      87A      0.084187    88A      0.089320    89A      0.092695  
      90A      0.099132    91A      0.103827    92A      0.108261  
      93A      0.117896    94A      0.122894    95A      0.128620  
      96A      0.132197    97A      0.137256    98A      0.143305  
      99A      0.148996   100A      0.152801   101A      0.156104  
     102A      0.174212   103A      0.177670   104A      0.184216  
     105A      0.191782   106A      0.195336   107A      0.203089  
     108A      0.205339   109A      0.210319   110A      0.217030  
     111A      0.225789   112A      0.226303   113A      0.230482  
     114A      0.233976   115A      0.239254   116A      0.245582  
     117A      0.249229   118A      0.262721   119A      0.266729  
     120A      0.271248   121A      0.278397   122A      0.282176  
     123A      0.287886   124A      0.292236   125A      0.295621  
     126A      0.297335   127A      0.317168   128A      0.319211  
     129A      0.322861   130A      0.324650   131A      0.327772  
     132A      0.332869   133A      0.337429   134A      0.343660  
     135A      0.346562   136A      0.352154   137A      0.356906  
     138A      0.358927   139A      0.365124   140A      0.366074  
     141A      0.369179   142A      0.378001   143A      0.381596  
     144A      0.387597   145A      0.397155   146A      0.400325  
     147A      0.403395   148A      0.406199   149A      0.409751  
     150A      0.411994   151A      0.415515   152A      0.418736  
     153A      0.423286   154A      0.427403   155A      0.433425  
     156A      0.436318   157A      0.439454   158A      0.444890  
     159A      0.450032   160A      0.454155   161A      0.455566  
     162A      0.469094   163A      0.470781   164A      0.475870  
     165A      0.485244   166A      0.491677   167A      0.494761  
     168A      0.501935   169A      0.505720   170A      0.508106  
     171A      0.510717   172A      0.516618   173A      0.524143  
     174A      0.527822   175A      0.536379   176A      0.537999  
     177A      0.550758   178A      0.554095   179A      0.564820  
     180A      0.574516   181A      0.576399   182A      0.580994  
     183A      0.593798   184A      0.599141   185A      0.604497  
     186A      0.611486   187A      0.628504   188A      0.635302  
     189A      0.640972   190A      0.646065   191A      0.655295  
     192A      0.659642   193A      0.666109   194A      0.668322  
     195A      0.677715   196A      0.683473   197A      0.691837  
     198A      0.705241   199A      0.709786   200A      0.716997  
     201A      0.726450   202A      0.729534   203A      0.737674  
     204A      0.746362   205A      0.752517   206A      0.756391  
     207A      0.762569   208A      0.770674   209A      0.773666  
     210A      0.781050   211A      0.796859   212A      0.802083  
     213A      0.810766   214A      0.811660   215A      0.815098  
     216A      0.828675   217A      0.832741   218A      0.842315  
     219A      0.857406   220A      0.863230   221A      0.864710  
     222A      0.874782   223A      0.880488   224A      0.890061  
     225A      0.894097   226A      0.899354   227A      0.916756  
     228A      0.932333   229A      0.935894   230A      0.941547  
     231A      0.969295   232A      0.978341   233A      0.980123  
     234A      0.997422   235A      0.999150   236A      1.001992  
     237A      1.014190   238A      1.020583   239A      1.023297  
     240A      1.035370   241A      1.043487   242A      1.047655  
     243A      1.056931   244A      1.066267   245A      1.072223  
     246A      1.080144   247A      1.100771   248A      1.115640  
     249A      1.132791   250A      1.137261   251A      1.151644  
     252A      1.158199   253A      1.174743   254A      1.189690  
     255A      1.194443   256A      1.202178   257A      1.211657  
     258A      1.214366   259A      1.219819   260A      1.225331  
     261A      1.234033   262A      1.243817   263A      1.247985  
     264A      1.260245   265A      1.269349   266A      1.276393  
     267A      1.285644   268A      1.290873   269A      1.307891  
     270A      1.309947   271A      1.322004   272A      1.332333  
     273A      1.345998   274A      1.353604   275A      1.371156  
     276A      1.372406   277A      1.386884   278A      1.394451  
     279A      1.406578   280A      1.419412   281A      1.427195  
     282A      1.429886   283A      1.437383   284A      1.442177  
     285A      1.455882   286A      1.464477   287A      1.468368  
     288A      1.471024   289A      1.472783   290A      1.484282  
     291A      1.494571   292A      1.499696   293A      1.507056  
     294A      1.513907   295A      1.521827   296A      1.532817  
     297A      1.538085   298A      1.550703   299A      1.553091  
     300A      1.561000   301A      1.574445   302A      1.583213  
     303A      1.591471   304A      1.597538   305A      1.614207  
     306A      1.617683   307A      1.624980   308A      1.626720  
     309A      1.632875   310A      1.634595   311A      1.642274  
     312A      1.647808   313A      1.668541   314A      1.675361  
     315A      1.676206   316A      1.690029   317A      1.697993  
     318A      1.703840   319A      1.713195   320A      1.717849  
     321A      1.725524   322A      1.738553   323A      1.748482  
     324A      1.760600   325A      1.767398   326A      1.790031  
     327A      1.796777   328A      1.805899   329A      1.815280  
     330A      1.826099   331A      1.833452   332A      1.835985  
     333A      1.838585   334A      1.851335   335A      1.855061  
     336A      1.867284   337A      1.882833   338A      1.890673  
     339A      1.898123   340A      1.912661   341A      1.926009  
     342A      1.928218   343A      1.932123   344A      1.950623  
     345A      1.958708   346A      1.972949   347A      1.976045  
     348A      1.991832   349A      2.001340   350A      2.007760  
     351A      2.024631   352A      2.037068   353A      2.037620  
     354A      2.046662   355A      2.058812   356A      2.064100  
     357A      2.067249   358A      2.074792   359A      2.088507  
     360A      2.090907   361A      2.104618   362A      2.112148  
     363A      2.131123   364A      2.133782   365A      2.143326  
     366A      2.152824   367A      2.158879   368A      2.159877  
     369A      2.167642   370A      2.187332   371A      2.197984  
     372A      2.208818   373A      2.220629   374A      2.222312  
     375A      2.227409   376A      2.242046   377A      2.250243  
     378A      2.252218   379A      2.265349   380A      2.277385  
     381A      2.292336   382A      2.297329   383A      2.324094  
     384A      2.334093   385A      2.339925   386A      2.358720  
     387A      2.366008   388A      2.386255   389A      2.390064  
     390A      2.404654   391A      2.429681   392A      2.431872  
     393A      2.442044   394A      2.452567   395A      2.470587  
     396A      2.473420   397A      2.486681   398A      2.497018  
     399A      2.499746   400A      2.508614   401A      2.518186  
     402A      2.532639   403A      2.533797   404A      2.542941  
     405A      2.552880   406A      2.559765   407A      2.566131  
     408A      2.577801   409A      2.591982   410A      2.602910  
     411A      2.607572   412A      2.611304   413A      2.625063  
     414A      2.636684   415A      2.643663   416A      2.651635  
     417A      2.653870   418A      2.659130   419A      2.662411  
     420A      2.668414   421A      2.676073   422A      2.678634  
     423A      2.691960   424A      2.701125   425A      2.710095  
     426A      2.717395   427A      2.723158   428A      2.732355  
     429A      2.741628   430A      2.750491   431A      2.751856  
     432A      2.761792   433A      2.764128   434A      2.772005  
     435A      2.778054   436A      2.780805   437A      2.795195  
     438A      2.802045   439A      2.812436   440A      2.819790  
     441A      2.825914   442A      2.831126   443A      2.841501  
     444A      2.851737   445A      2.853818   446A      2.867945  
     447A      2.880186   448A      2.891936   449A      2.909367  
     450A      2.913574   451A      2.934841   452A      2.943443  
     453A      2.947911   454A      2.948853   455A      2.959758  
     456A      2.974276   457A      2.981378   458A      2.990276  
     459A      3.005421   460A      3.009979   461A      3.028747  
     462A      3.040459   463A      3.041004   464A      3.048908  
     465A      3.061217   466A      3.077318   467A      3.079327  
     468A      3.094526   469A      3.105493   470A      3.110193  
     471A      3.117317   472A      3.125420   473A      3.130883  
     474A      3.132101   475A      3.139887   476A      3.146174  
     477A      3.149844   478A      3.157257   479A      3.160252  
     480A      3.163273   481A      3.169309   482A      3.175492  
     483A      3.184541   484A      3.189298   485A      3.205903  
     486A      3.216815   487A      3.225705   488A      3.236190  
     489A      3.237271   490A      3.250820   491A      3.252783  
     492A      3.265335   493A      3.266410   494A      3.270127  
     495A      3.279149   496A      3.283589   497A      3.296079  
     498A      3.303254   499A      3.310522   500A      3.321176  
     501A      3.324583   502A      3.330621   503A      3.337369  
     504A      3.346427   505A      3.363523   506A      3.367030  
     507A      3.368665   508A      3.378024   509A      3.382869  
     510A      3.389588   511A      3.402297   512A      3.407316  
     513A      3.410728   514A      3.418315   515A      3.433135  
     516A      3.443022   517A      3.448309   518A      3.452979  
     519A      3.468426   520A      3.471150   521A      3.478831  
     522A      3.483989   523A      3.493579   524A      3.496684  
     525A      3.506216   526A      3.519739   527A      3.534736  
     528A      3.546915   529A      3.551297   530A      3.571745  
     531A      3.577378   532A      3.593822   533A      3.594733  
     534A      3.612634   535A      3.621731   536A      3.645401  
     537A      3.651386   538A      3.658641   539A      3.664270  
     540A      3.686463   541A      3.699461   542A      3.730580  
     543A      3.743499   544A      3.751052   545A      3.769482  
     546A      3.772794   547A      3.789652   548A      3.804944  
     549A      3.810488   550A      3.822023   551A      3.841488  
     552A      3.843231   553A      3.846703   554A      3.856728  
     555A      3.874225   556A      3.878808   557A      3.908184  
     558A      3.914646   559A      3.928652   560A      3.941020  
     561A      3.957444   562A      3.968316   563A      3.985634  
     564A      4.003233   565A      4.011478   566A      4.032309  
     567A      4.041218   568A      4.055507   569A      4.060409  
     570A      4.074277   571A      4.092720   572A      4.128523  
     573A      4.130186   574A      4.133871   575A      4.163268  
     576A      4.177987   577A      4.197405   578A      4.208697  
     579A      4.213548   580A      4.221191   581A      4.230409  
     582A      4.245366   583A      4.251647   584A      4.277394  
     585A      4.299555   586A      4.316235   587A      4.325489  
     588A      4.341054   589A      4.356928   590A      4.371057  
     591A      4.394976   592A      4.411957   593A      4.423242  
     594A      4.442573   595A      4.468503   596A      4.476351  
     597A      4.480259   598A      4.507114   599A      4.511565  
     600A      4.531377   601A      4.561783   602A      4.621505  
     603A      4.665979   604A      4.681432   605A      4.689978  
     606A      4.701281   607A      4.711317   608A      4.718824  
     609A      4.732750   610A      4.740419   611A      4.757572  
     612A      4.768792   613A      4.808269   614A      4.816785  
     615A      4.828466   616A      4.859749   617A      4.865181  
     618A      4.904051   619A      4.917597   620A      4.936983  
     621A      4.949550   622A      4.962577   623A      4.998563  
     624A      5.015120   625A      5.026656   626A      5.054959  
     627A      5.111129   628A      5.116680   629A      5.124496  
     630A      5.128169   631A      5.144005   632A      5.161044  
     633A      5.167833   634A      5.185981   635A      5.191218  
     636A      5.202962   637A      5.212663   638A      5.217694  
     639A      5.227787   640A      5.228562   641A      5.237875  
     642A      5.256156   643A      5.279283   644A      5.285517  
     645A      5.311601   646A      5.351385   647A      5.358893  
     648A      5.363368   649A      5.390299   650A      5.403705  
     651A      5.412649   652A      5.416670   653A      5.439699  
     654A      5.463306   655A      5.470496   656A      5.482242  
     657A      5.546903   658A      5.558450   659A      5.573701  
     660A      5.594713   661A      5.665170   662A      5.669869  
     663A      5.684250   664A      5.702866   665A      5.757900  
     666A      5.787070   667A      5.829478   668A      5.854804  
     669A      5.868317   670A      5.879363   671A      5.930213  
     672A      5.941417   673A      6.151805   674A      6.156997  
     675A      6.167357   676A      6.199370   677A      6.312811  
     678A      6.330776   679A      6.336742   680A      6.363547  
     681A      6.421545   682A      6.430508   683A      6.490118  
     684A      6.496746   685A      6.550115   686A      6.574968  
     687A      6.644611   688A      6.673073   689A      6.705341  
     690A      6.738004   691A      6.755785   692A      6.808891  
     693A      6.844870   694A      6.861387   695A      6.884508  
     696A      7.067029   697A      7.079269   698A      7.095950  
     699A      7.105235   700A      7.124050   701A      7.161777  
     702A      7.315702   703A     22.057913   704A     22.498829  
     705A     22.544395   706A     22.546251   707A     22.578812  
     708A     22.593485   709A     22.656477   710A     22.724789  
     711A     22.787214   712A     23.198978   713A     23.207431  
     714A     23.298859   715A     23.431085   716A     32.073124  
     717A     32.410686   718A     32.502937   719A     43.765702  
     720A     43.909266   721A     43.928477   722A     44.014955  

    Final Occupation by Irrep:
              A 
    DOCC [    74 ]
    NA   [    74 ]
    NB   [    74 ]

  @DF-RKS Final Energy:  -971.29449825776999

   => Energetics <=

    Nuclear Repulsion Energy =           1567.4064827257525394
    One-Electron Energy =               -4436.7894634876702185
    Two-Electron Energy =                2005.2096769988093001
    DFT Exchange-Correlation Energy =    -107.0455722689351603
    Empirical Dispersion Energy =          -0.0756222257263846
    VV10 Nonlocal Energy =                  0.0000000000000000
    Total Energy =                       -971.2944982577699875

Computation Completed


Properties will be evaluated at   0.000000,   0.000000,   0.000000 [a0]

Properties computed using the SCF density matrix


 Multipole Moments:

 ------------------------------------------------------------------------------------
     Multipole            Electronic (a.u.)      Nuclear  (a.u.)        Total (a.u.)
 ------------------------------------------------------------------------------------

 L = 1.  Multiply by 2.5417464519 to convert [e a0] to [Debye]
 Dipole X            :         98.8696509          -98.0654480            0.8042028
 Dipole Y            :         -7.2909174            8.1806244            0.8897070
 Dipole Z            :         -0.1163796            0.0982658           -0.0181138
 Magnitude           :                                                    1.1994369

 ------------------------------------------------------------------------------------

*** tstop() called on choehoyun-ui-MacBookAir.local at Sun Aug  9 15:39:29 2026
Module time:
	user time   =     540.15 seconds =       9.00 minutes
	system time =       9.56 seconds =       0.16 minutes
	total time  =         83 seconds =       1.38 minutes
Total time:
	user time   =     540.15 seconds =       9.00 minutes
	system time =       9.56 seconds =       0.16 minutes
	total time  =         83 seconds =       1.38 minutes

    Psi4 stopped on: Sunday, 09 August 2026 03:39PM
    Psi4 wall time for execution: 0:01:22.79

*** Psi4 exiting successfully. Buy a developer a beer!
