
    -----------------------------------------------------------------------
          Psi4: An Open-Source Ab Initio Electronic Structure Package
                               Psi4 1.11 release

                         Git: Rev {} zzzzzzz 


    D. G. A. Smith, L. A. Burns, A. C. Simmonett, R. M. Parrish,
    M. C. Schieber, R. Galvelis, P. Kraus, H. Kruse, R. Di Remigio,
    A. Alenaizan, A. M. James, S. Lehtola, J. P. Misiewicz, M. Scheurer,
    R. A. Shaw, J. B. Schriber, Y. Xie, Z. L. Glick, D. A. Sirianni,
    J. S. O'Brien, J. M. Waldrop, A. Kumar, E. G. Hohenstein,
    B. P. Pritchard, B. R. Brooks, H. F. Schaefer III, A. Yu. Sokolov,
    K. Patkowski, A. E. DePrince III, U. Bozkaya, R. A. King,
    F. A. Evangelista, J. M. Turney, T. D. Crawford, C. D. Sherrill,
    J. Chem. Phys. 152(18) 184108 (2020). https://doi.org/10.1063/5.0006002

                            Additional Code Authors
    E. T. Seidl, C. L. Janssen, E. F. Valeev, M. L. Leininger,
    J. F. Gonthier, R. M. Richard, H. R. McAlexander, M. Saitow, X. Wang,
    P. Verma, M. H. Lechner, A. Jiang, S. Behnle, A. G. Heide,
    M. F. Herbst, D. L. Poole, T. Győri, E. C. Mitchell, J. P. Pederson,
    and A. M. Wallace

             Previous Authors, Complete List of Code Contributors,
                       and Citations for Specific Modules
    https://github.com/psi4/psi4/blob/master/codemeta.json
    https://github.com/psi4/psi4/graphs/contributors
    https://psicode.org/psi4manual/master/introduction.html#citing-psifour

    -----------------------------------------------------------------------


    Psi4 started on: Sunday, 09 August 2026 10:45AM

    Process ID: 56223
    Host:       choehoyun-ui-MacBookAir.local
    PSIDATADIR: /Users/hoyoun/micromamba/envs/psi4env/share/psi4
    Memory:     500.0 MiB
    Threads:    8
    Addons:     a̶d̶c̶c̶, a̶m̶b̶i̶t̶, b̶s̶e̶, c̶c̶t̶3̶, c̶f̶o̶u̶r̶, c̶h̶e̶m̶p̶s̶2̶, c̶p̶p̶e̶, d̶d̶x̶, dftd3,
                d̶f̶t̶d̶4̶, dkh, ecpint, einsums, f̶o̶r̶t̶e̶, gauxc, g̶c̶p̶, g̶d̶m̶a̶,
                g̶e̶o̶m̶e̶t̶r̶i̶c̶, g̶p̶u̶_̶d̶f̶c̶c̶, i̶n̶t̶e̶g̶r̶a̶t̶o̶r̶x̶x̶, i̶p̶i̶,
                l̶i̶b̶e̶f̶p̶, m̶d̶i̶, m̶p̶2̶d̶, m̶r̶c̶c̶, ooo, o̶p̶e̶n̶f̶e̶r̶m̶i̶o̶n̶p̶s̶i̶4̶,
                pcmsolver, p̶s̶i̶4̶f̶o̶c̶k̶c̶i̶, p̶s̶i̶x̶a̶s̶, p̶y̶e̶i̶n̶s̶u̶m̶s̶, r̶e̶s̶p̶,
                s̶i̶m̶i̶n̶t̶, s̶n̶s̶m̶p̶2̶, v̶2̶r̶d̶m̶_̶c̶a̶s̶s̶c̶f̶

  ==> Input File <==

--------------------------------------------------------------------------
memory 3 GB
molecule mol {
0 1
C -0.08287796344823 3.82848900120411 -0.10483915300118
C 0.18541107473985 2.86220844433622 -1.31386323091664
C 0.27061263931543 1.50497927623620 -0.56456577601789
C 0.02004710697805 1.97665306763871 0.92588036014674
C 1.20910660294604 2.75872539769817 1.43900594224457
C 1.16519075853753 3.91972901587764 0.77287206034770
C -0.98023368897579 -2.40564048316047 0.35791733464482
C -1.33046536229680 -3.14555201408399 -0.77739639828385
C -0.50285126311698 -4.17709855478206 -1.23770671844343
C 0.68556368558591 -4.47119762824047 -0.56345207202375
C 1.04238315050842 -3.73374007977131 0.57348719778100
C 0.21475927672804 -2.70626009417018 1.03069484217936
O -0.96594218686182 3.03262818986291 0.70043561271196
Cl -0.83220634132201 5.40157230380528 -0.55216861056326
C -0.59656588235263 0.76449370403708 1.61748481742520
N -1.16532645053888 0.02682374042239 0.61368819163202
C -0.93219333706424 0.54440519127307 -0.74005056143372
C -1.83660810878544 -1.24965048328007 0.83676956145896
O -0.56648231518812 0.49287985128808 2.81000388334420
C 1.58715486273160 0.75301825480669 -0.76526912112294
H -0.66263801797388 2.90822188136010 -2.00387985115697
H 1.10612233935974 3.11695746847127 -1.84761855971798
H 1.96695279209616 2.38149736451670 2.11620047160264
H 1.87160201487249 4.74174100928888 0.75343529092216
H -2.25764023045504 -2.91424772262399 -1.30124929480719
H -0.78550884866106 -4.74706760488612 -2.12082837887951
H 1.33059178934426 -5.27252169858302 -0.91860471787227
H 1.96358646732176 -3.96515914509026 1.10513122060242
H 0.48487212832725 -2.12917300708931 1.91361104034765
H -0.70188705444677 -0.29004392816146 -1.41464980462829
H -1.82385783265657 1.07327721087166 -1.10425210146851
H -2.80153448223852 -1.24353479566342 0.31141553555773
H -2.02311897685127 -1.32105275939305 1.91443343138342
H 2.44112864445543 1.39266998468036 -0.51438934982637
H 1.68453819596695 0.43730790242684 -1.81204677311987
H 1.61831481341915 -0.14633826112326 -0.13563632104894
units angstrom
no_reorient
no_com
}
set basis def2-TZVP
set scf_type df
set freeze_core true
set e_convergence 8
energy('b3lyp-d3bj')
--------------------------------------------------------------------------

  Memory set to   2.794 GiB by Python driver.

Scratch directory: /Users/hoyoun/Documents/Yonsei_AX_Camp/(진짜_이게_최종)/calibration/dft_work/_scratch/i21e/
   => Libint2 <=

    Primary   basis highest AM E, G, H:  7, 6, 3
    Auxiliary basis highest AM E, G, H:  7, 7, 4
    Onebody   basis highest AM E, G, H:  -, -, -
    Solid Harmonics ordering:            Gaussian

*** tstart() called on choehoyun-ui-MacBookAir.local
*** at Sun Aug  9 10:45:19 2026

   => Loading Basis Set <=

    Name: DEF2-TZVP
    Role: ORBITAL
    Keyword: BASIS
    atoms 1-12, 15, 17-18, 20 entry C          line   123 file /Users/hoyoun/micromamba/envs/psi4env/share/psi4/basis/def2-tzvp.gbs 
    atoms 13, 19              entry O          line   189 file /Users/hoyoun/micromamba/envs/psi4env/share/psi4/basis/def2-tzvp.gbs 
    atoms 14                  entry CL         line   534 file /Users/hoyoun/micromamba/envs/psi4env/share/psi4/basis/def2-tzvp.gbs 
    atoms 16                  entry N          line   156 file /Users/hoyoun/micromamba/envs/psi4env/share/psi4/basis/def2-tzvp.gbs 
    atoms 21-36               entry H          line    15 file /Users/hoyoun/micromamba/envs/psi4env/share/psi4/basis/def2-tzvp.gbs 

   => B3LYP-D3(BJ): Empirical Dispersion <=

    Grimme's -D3 (BJ-damping) Dispersion Correction
    Grimme S.; Ehrlich S.; Goerigk L. (2011), J. Comput. Chem., 32: 1456

        s6 =       1.000000
        s8 =       1.988900
        a1 =       0.398100
        a2 =       4.421100


         ---------------------------------------------------------
                                   SCF
               by Justin Turney, Rob Parrish, Andy Simmonett
                          and Daniel G. A. Smith
                              RKS Reference
                        8 Threads,   2861 MiB Core
         ---------------------------------------------------------

  ==> Geometry <==

    Molecular point group: c1
    Full point group: C1

    Geometry (in Angstrom), charge = 0, multiplicity = 1:

       Center              X                  Y                   Z               Mass       
    ------------   -----------------  -----------------  -----------------  -----------------
         C           -0.082877963448     3.828489001204    -0.104839153001    12.000000000000
         C            0.185411074740     2.862208444336    -1.313863230917    12.000000000000
         C            0.270612639315     1.504979276236    -0.564565776018    12.000000000000
         C            0.020047106978     1.976653067639     0.925880360147    12.000000000000
         C            1.209106602946     2.758725397698     1.439005942245    12.000000000000
         C            1.165190758538     3.919729015878     0.772872060348    12.000000000000
         C           -0.980233688976    -2.405640483160     0.357917334645    12.000000000000
         C           -1.330465362297    -3.145552014084    -0.777396398284    12.000000000000
         C           -0.502851263117    -4.177098554782    -1.237706718443    12.000000000000
         C            0.685563685586    -4.471197628240    -0.563452072024    12.000000000000
         C            1.042383150508    -3.733740079771     0.573487197781    12.000000000000
         C            0.214759276728    -2.706260094170     1.030694842179    12.000000000000
         O           -0.965942186862     3.032628189863     0.700435612712    15.994914619570
         CL          -0.832206341322     5.401572303805    -0.552168610563    34.968852682000
         C           -0.596565882353     0.764493704037     1.617484817425    12.000000000000
         N           -1.165326450539     0.026823740422     0.613688191632    14.003074004430
         C           -0.932193337064     0.544405191273    -0.740050561434    12.000000000000
         C           -1.836608108785    -1.249650483280     0.836769561459    12.000000000000
         O           -0.566482315188     0.492879851288     2.810003883344    15.994914619570
         C            1.587154862732     0.753018254807    -0.765269121123    12.000000000000
         H           -0.662638017974     2.908221881360    -2.003879851157     1.007825032230
         H            1.106122339360     3.116957468471    -1.847618559718     1.007825032230
         H            1.966952792096     2.381497364517     2.116200471603     1.007825032230
         H            1.871602014872     4.741741009289     0.753435290922     1.007825032230
         H           -2.257640230455    -2.914247722624    -1.301249294807     1.007825032230
         H           -0.785508848661    -4.747067604886    -2.120828378880     1.007825032230
         H            1.330591789344    -5.272521698583    -0.918604717872     1.007825032230
         H            1.963586467322    -3.965159145090     1.105131220602     1.007825032230
         H            0.484872128327    -2.129173007089     1.913611040348     1.007825032230
         H           -0.701887054447    -0.290043928161    -1.414649804628     1.007825032230
         H           -1.823857832657     1.073277210872    -1.104252101469     1.007825032230
         H           -2.801534482239    -1.243534795663     0.311415535558     1.007825032230
         H           -2.023118976851    -1.321052759393     1.914433431383     1.007825032230
         H            2.441128644455     1.392669984680    -0.514389349826     1.007825032230
         H            1.684538195967     0.437307902427    -1.812046773120     1.007825032230
         H            1.618314813419    -0.146338261123    -0.135636321049     1.007825032230

  Running in c1 symmetry.

  Rotational constants: A =      0.02638  B =      0.00536  C =      0.00525 [cm^-1]
  Rotational constants: A =    790.95736  B =    160.81300  C =    157.26559 [MHz]
  Nuclear repulsion = 1698.464272242365496

  Charge       = 0
  Multiplicity = 1
  Electrons    = 152
  Nalpha       = 76
  Nbeta        = 76

  ==> Algorithm <==

  SCF Algorithm Type is DF.
  DIIS enabled.
  MOM disabled.
  Fractional occupation disabled.
  Guess Type is SAD.
  Energy threshold   = 1.00e-08
  Density threshold  = 1.00e-06
  Integral threshold = 1.00e-12

  ==> Primary Basis <==

  Basis Set: DEF2-TZVP
    Blend: DEF2-TZVP
    Number of shells: 286
    Number of basis functions: 722
    Number of Cartesian functions: 822
    Spherical Harmonics?: true
    Max angular momentum: 3

  ==> DFT Potential <==

   => LibXC <=

    Version 7.1.2
    S. Lehtola, C. Steigemann, M. J. T. Oliveira, and M. A. L. Marques,  SoftwareX 7, 1–5 (2018) (10.1016/j.softx.2017.11.002)

   => Composite Functional: B3LYP-D3BJ2B <= 

    B3LYP-d3bj2b Hyb-GGA Exchange-Correlation Functional

    P. J. Stephens, F. J. Devlin, C. F. Chabalowski, and M. J. Frisch,  J. Phys. Chem. 98, 11623 (1994) (10.1021/j100096a001)

    Deriv               =              1
    GGA                 =           TRUE
    Meta                =          FALSE

    Exchange Hybrid     =           TRUE
    MP2 Hybrid          =          FALSE

   => Exchange Functionals <=

    0.0800   Slater exchange
    0.7200         Becke 88

   => Exact (HF) Exchange <=

    0.2000               HF 

   => Correlation Functionals <=

    0.1900   Vosko, Wilk & Nusair (VWN5_RPA)
    0.8100   Lee, Yang & Parr

   => LibXC Density Thresholds  <==

    XC_HYB_GGA_XC_B3LYP:  1.00E-15 

   => Molecular Quadrature <=

    Radial Scheme          =       TREUTLER
    Pruning Scheme         =           NONE
    Nuclear Scheme         =       TREUTLER

    Blocking Scheme        =         OCTREE
    BS radius alpha        =              1
    Pruning alpha          =              1
    Radial Points          =             75
    Spherical Points       =            302
    Total Points           =         735002
    Total Blocks           =           5218
    Max Points             =            256
    Max Functions          =            563
    Weights Tolerance      =       1.00E-15

   => Loading Basis Set <=

    Name: (DEF2-TZVP AUX)
    Role: JKFIT
    Keyword: DF_BASIS_SCF
    atoms 1-12, 15, 17-18, 20 entry C          line   198 file /Users/hoyoun/micromamba/envs/psi4env/share/psi4/basis/def2-universal-jkfit.gbs 
    atoms 13, 19              entry O          line   318 file /Users/hoyoun/micromamba/envs/psi4env/share/psi4/basis/def2-universal-jkfit.gbs 
    atoms 14                  entry CL         line   986 file /Users/hoyoun/micromamba/envs/psi4env/share/psi4/basis/def2-universal-jkfit.gbs 
    atoms 16                  entry N          line   258 file /Users/hoyoun/micromamba/envs/psi4env/share/psi4/basis/def2-universal-jkfit.gbs 
    atoms 21-36               entry H          line    18 file /Users/hoyoun/micromamba/envs/psi4env/share/psi4/basis/def2-universal-jkfit.gbs 

  ==> Integral Setup <==

  ==> DiskDFJK: Density-Fitted J/K Matrices <==

    J tasked:                  Yes
    K tasked:                  Yes
    wK tasked:                  No
    OpenMP threads:              8
    Integrals threads:           8
    Memory [MiB]:             1931
    Algorithm:                Disk
    Integral Cache:           NONE
    Schwarz Cutoff:          1E-12
    Fitting Condition:       1E-10

   => Auxiliary Basis Set <=

  Basis Set: (DEF2-TZVP AUX)
    Blend: DEF2-UNIVERSAL-JKFIT
    Number of shells: 609
    Number of basis functions: 1847
    Number of Cartesian functions: 2178
    Spherical Harmonics?: true
    Max angular momentum: 4

  Cached 2.8% of DFT collocation blocks in 0.211 [GiB].

  Minimum eigenvalue in the overlap matrix is 8.1055431925E-06.
  Reciprocal condition number of the overlap matrix is 6.6055173162E-07.
    Using symmetric orthogonalization.

  ==> Pre-Iterations <==

  SCF Guess: Superposition of Atomic Densities via on-the-fly atomic UHF (no occupation information).

   -------------------------
    Irrep   Nso     Nmo    
   -------------------------
     A        722     722 
   -------------------------
    Total     722     722
   -------------------------

  ==> Iterations <==

                           Total Energy        Delta E     RMS |[F,P]|

   @DF-RKS iter SAD: -1284.88623130010183   -1.28489e+03   0.00000e+00 
   @DF-RKS iter   1: -1283.75635716830698    1.12987e+00   2.29389e-03 ADIIS/DIIS
   @DF-RKS iter   2: -1282.66306003895215    1.09330e+00   3.03213e-03 ADIIS/DIIS
   @DF-RKS iter   3: -1285.07060643435057   -2.40755e+00   4.45773e-04 ADIIS/DIIS
   @DF-RKS iter   4: -1285.10530014128062   -3.46937e-02   2.24006e-04 ADIIS/DIIS
   @DF-RKS iter   5: -1285.11613076954040   -1.08306e-02   8.08427e-05 DIIS
   @DF-RKS iter   6: -1285.11757034276047   -1.43957e-03   3.04284e-05 DIIS
   @DF-RKS iter   7: -1285.11778135299983   -2.11010e-04   9.40006e-06 DIIS
   @DF-RKS iter   8: -1285.11779826378347   -1.69108e-05   2.96671e-06 DIIS
   @DF-RKS iter   9: -1285.11779988723811   -1.62345e-06   1.28210e-06 DIIS
   @DF-RKS iter  10: -1285.11780025449730   -3.67259e-07   3.06396e-07 DIIS
   @DF-RKS iter  11: -1285.11780027379359   -1.92963e-08   1.02469e-07 DIIS
   @DF-RKS iter  12: -1285.11780027608802   -2.29443e-09   2.89605e-08 DIIS
  Energy and wave function converged.


  ==> Post-Iterations <==

   Electrons on quadrature grid:
      Ntotal   =  152.0003825629 ; deviation = 3.826e-04 

    Orbital Energies [Eh]
    ---------------------

    Doubly Occupied:                                                      

       1A   -101.523384     2A    -19.154216     3A    -19.103601  
       4A    -14.358994     5A    -10.303472     6A    -10.281596  
       7A    -10.255397     8A    -10.224577     9A    -10.223709  
      10A    -10.214762    11A    -10.199271    12A    -10.198339  
      13A    -10.198329    14A    -10.197083    15A    -10.190423  
      16A    -10.189889    17A    -10.189313    18A    -10.188567  
      19A    -10.186682    20A    -10.180921    21A     -9.455431  
      22A     -7.217122    23A     -7.208371    24A     -7.208058  
      25A     -1.083440    26A     -1.043138    27A     -0.960889  
      28A     -0.870141    29A     -0.857520    30A     -0.843289  
      31A     -0.806530    32A     -0.784617    33A     -0.758187  
      34A     -0.750403    35A     -0.718160    36A     -0.715188  
      37A     -0.686051    38A     -0.620357    39A     -0.617885  
      40A     -0.597890    41A     -0.584769    42A     -0.576332  
      43A     -0.560128    44A     -0.527691    45A     -0.525596  
      46A     -0.510109    47A     -0.488344    48A     -0.482412  
      49A     -0.471801    50A     -0.467944    51A     -0.461468  
      52A     -0.457042    53A     -0.444012    54A     -0.434650  
      55A     -0.433358    56A     -0.427496    57A     -0.420267  
      58A     -0.406472    59A     -0.404246    60A     -0.395302  
      61A     -0.394751    62A     -0.381642    63A     -0.374459  
      64A     -0.365425    65A     -0.362498    66A     -0.360616  
      67A     -0.355239    68A     -0.346647    69A     -0.318414  
      70A     -0.308258    71A     -0.293883    72A     -0.280570  
      73A     -0.271233    74A     -0.268837    75A     -0.261702  
      76A     -0.254044  

    Virtual:                                                              

      77A     -0.033982    78A     -0.029173    79A     -0.027998  
      80A     -0.007640    81A      0.015776    82A      0.027293  
      83A      0.038851    84A      0.048320    85A      0.057828  
      86A      0.064315    87A      0.069757    88A      0.070727  
      89A      0.078721    90A      0.083348    91A      0.086382  
      92A      0.089758    93A      0.094997    94A      0.097893  
      95A      0.103799    96A      0.112632    97A      0.114197  
      98A      0.118948    99A      0.124368   100A      0.128916  
     101A      0.138620   102A      0.141496   103A      0.145472  
     104A      0.156952   105A      0.164930   106A      0.168042  
     107A      0.176373   108A      0.176601   109A      0.183177  
     110A      0.187240   111A      0.202339   112A      0.203591  
     113A      0.209630   114A      0.212188   115A      0.218950  
     116A      0.225493   117A      0.229565   118A      0.231451  
     119A      0.236389   120A      0.237024   121A      0.244779  
     122A      0.250194   123A      0.263007   124A      0.264545  
     125A      0.267679   126A      0.273066   127A      0.277713  
     128A      0.282677   129A      0.289152   130A      0.297174  
     131A      0.298949   132A      0.303833   133A      0.313662  
     134A      0.317466   135A      0.321669   136A      0.328790  
     137A      0.331144   138A      0.333334   139A      0.334878  
     140A      0.339460   141A      0.343374   142A      0.350172  
     143A      0.354464   144A      0.357943   145A      0.362731  
     146A      0.365407   147A      0.369655   148A      0.371212  
     149A      0.375430   150A      0.382056   151A      0.387351  
     152A      0.396621   153A      0.400038   154A      0.402629  
     155A      0.404110   156A      0.408481   157A      0.413239  
     158A      0.414444   159A      0.418040   160A      0.424539  
     161A      0.427505   162A      0.430273   163A      0.432371  
     164A      0.436027   165A      0.446454   166A      0.449126  
     167A      0.455495   168A      0.458389   169A      0.463213  
     170A      0.467622   171A      0.477376   172A      0.480551  
     173A      0.482208   174A      0.485857   175A      0.491310  
     176A      0.502569   177A      0.506499   178A      0.509778  
     179A      0.511109   180A      0.519984   181A      0.523654  
     182A      0.529612   183A      0.539386   184A      0.549215  
     185A      0.553128   186A      0.557144   187A      0.571710  
     188A      0.575896   189A      0.588461   190A      0.588723  
     191A      0.600059   192A      0.611307   193A      0.615101  
     194A      0.626261   195A      0.632253   196A      0.638728  
     197A      0.639901   198A      0.652321   199A      0.653849  
     200A      0.663377   201A      0.665937   202A      0.673793  
     203A      0.678196   204A      0.691832   205A      0.699959  
     206A      0.708760   207A      0.713086   208A      0.721524  
     209A      0.726833   210A      0.732736   211A      0.750926  
     212A      0.758044   213A      0.761973   214A      0.765537  
     215A      0.771319   216A      0.785524   217A      0.791443  
     218A      0.797974   219A      0.805863   220A      0.814113  
     221A      0.823039   222A      0.832161   223A      0.835294  
     224A      0.847959   225A      0.857942   226A      0.863241  
     227A      0.877546   228A      0.882777   229A      0.889878  
     230A      0.891103   231A      0.897966   232A      0.902919  
     233A      0.915700   234A      0.931190   235A      0.934269  
     236A      0.945866   237A      0.951727   238A      0.966913  
     239A      0.970543   240A      0.978330   241A      0.997653  
     242A      0.999615   243A      1.004928   244A      1.012712  
     245A      1.016518   246A      1.022975   247A      1.029788  
     248A      1.036186   249A      1.041756   250A      1.059511  
     251A      1.063478   252A      1.073253   253A      1.075643  
     254A      1.091814   255A      1.099595   256A      1.101193  
     257A      1.111042   258A      1.117826   259A      1.126115  
     260A      1.132237   261A      1.142700   262A      1.149049  
     263A      1.160883   264A      1.173097   265A      1.190215  
     266A      1.195116   267A      1.199296   268A      1.201845  
     269A      1.208818   270A      1.215788   271A      1.220119  
     272A      1.231284   273A      1.240089   274A      1.249448  
     275A      1.256365   276A      1.262271   277A      1.282230  
     278A      1.286248   279A      1.292272   280A      1.294251  
     281A      1.303030   282A      1.318842   283A      1.321298  
     284A      1.328195   285A      1.337201   286A      1.339896  
     287A      1.367469   288A      1.371536   289A      1.378044  
     290A      1.389097   291A      1.406059   292A      1.408980  
     293A      1.427087   294A      1.435217   295A      1.443241  
     296A      1.446586   297A      1.452340   298A      1.454455  
     299A      1.471658   300A      1.477096   301A      1.481677  
     302A      1.489384   303A      1.502703   304A      1.514315  
     305A      1.522271   306A      1.534629   307A      1.539271  
     308A      1.545836   309A      1.559829   310A      1.567122  
     311A      1.583175   312A      1.585751   313A      1.588793  
     314A      1.598449   315A      1.600033   316A      1.605229  
     317A      1.616452   318A      1.623566   319A      1.627687  
     320A      1.649051   321A      1.654356   322A      1.661144  
     323A      1.671534   324A      1.677469   325A      1.685002  
     326A      1.694084   327A      1.700691   328A      1.706082  
     329A      1.710376   330A      1.714114   331A      1.725883  
     332A      1.740232   333A      1.746198   334A      1.766332  
     335A      1.772516   336A      1.774959   337A      1.786338  
     338A      1.795734   339A      1.802152   340A      1.810926  
     341A      1.826553   342A      1.827971   343A      1.836330  
     344A      1.843603   345A      1.852092   346A      1.866580  
     347A      1.876906   348A      1.882401   349A      1.899846  
     350A      1.905306   351A      1.909458   352A      1.918301  
     353A      1.929482   354A      1.940693   355A      1.952593  
     356A      1.961148   357A      1.972374   358A      1.976639  
     359A      1.986667   360A      1.988813   361A      2.005315  
     362A      2.009710   363A      2.026272   364A      2.033473  
     365A      2.037849   366A      2.041178   367A      2.055950  
     368A      2.062665   369A      2.070668   370A      2.081617  
     371A      2.087757   372A      2.091977   373A      2.096427  
     374A      2.111486   375A      2.120338   376A      2.122996  
     377A      2.132266   378A      2.138303   379A      2.145082  
     380A      2.165001   381A      2.174710   382A      2.181105  
     383A      2.190747   384A      2.194012   385A      2.199397  
     386A      2.206996   387A      2.222998   388A      2.225873  
     389A      2.229470   390A      2.240899   391A      2.250308  
     392A      2.251968   393A      2.257501   394A      2.272019  
     395A      2.281783   396A      2.287158   397A      2.292677  
     398A      2.301952   399A      2.315779   400A      2.332767  
     401A      2.341875   402A      2.352496   403A      2.368473  
     404A      2.371825   405A      2.375371   406A      2.385912  
     407A      2.389777   408A      2.407979   409A      2.417792  
     410A      2.434340   411A      2.453065   412A      2.462127  
     413A      2.465858   414A      2.470120   415A      2.484226  
     416A      2.497745   417A      2.502065   418A      2.511305  
     419A      2.516286   420A      2.520064   421A      2.529592  
     422A      2.532716   423A      2.541768   424A      2.555314  
     425A      2.566514   426A      2.573954   427A      2.579321  
     428A      2.584723   429A      2.590564   430A      2.605198  
     431A      2.607475   432A      2.615468   433A      2.625342  
     434A      2.631040   435A      2.644901   436A      2.646844  
     437A      2.647754   438A      2.655440   439A      2.659258  
     440A      2.670597   441A      2.689576   442A      2.692135  
     443A      2.700845   444A      2.709345   445A      2.714705  
     446A      2.723635   447A      2.730467   448A      2.741180  
     449A      2.743862   450A      2.754364   451A      2.766962  
     452A      2.774984   453A      2.776277   454A      2.778988  
     455A      2.793805   456A      2.798183   457A      2.815675  
     458A      2.821039   459A      2.825209   460A      2.831264  
     461A      2.835370   462A      2.847296   463A      2.848182  
     464A      2.857940   465A      2.875404   466A      2.878433  
     467A      2.888371   468A      2.902463   469A      2.905759  
     470A      2.924975   471A      2.934477   472A      2.937278  
     473A      2.944198   474A      2.948589   475A      2.962902  
     476A      2.966327   477A      2.985086   478A      2.991056  
     479A      2.998157   480A      3.015928   481A      3.025905  
     482A      3.034318   483A      3.048328   484A      3.061577  
     485A      3.068822   486A      3.084300   487A      3.085196  
     488A      3.091937   489A      3.100409   490A      3.113440  
     491A      3.115918   492A      3.125108   493A      3.127942  
     494A      3.131382   495A      3.141898   496A      3.147198  
     497A      3.150183   498A      3.155690   499A      3.164383  
     500A      3.176518   501A      3.182653   502A      3.188324  
     503A      3.195380   504A      3.197527   505A      3.201657  
     506A      3.210495   507A      3.219880   508A      3.225284  
     509A      3.237600   510A      3.242892   511A      3.252001  
     512A      3.265717   513A      3.273772   514A      3.279169  
     515A      3.282162   516A      3.286794   517A      3.298519  
     518A      3.310806   519A      3.319279   520A      3.329434  
     521A      3.333743   522A      3.342966   523A      3.351728  
     524A      3.355572   525A      3.364398   526A      3.373440  
     527A      3.376397   528A      3.378082   529A      3.392882  
     530A      3.399980   531A      3.401495   532A      3.412588  
     533A      3.419171   534A      3.433703   535A      3.439257  
     536A      3.444091   537A      3.449370   538A      3.462157  
     539A      3.467013   540A      3.468533   541A      3.478520  
     542A      3.487883   543A      3.497362   544A      3.506595  
     545A      3.514355   546A      3.523842   547A      3.527482  
     548A      3.537593   549A      3.544733   550A      3.551935  
     551A      3.562308   552A      3.574219   553A      3.595115  
     554A      3.598022   555A      3.612274   556A      3.616934  
     557A      3.640890   558A      3.648419   559A      3.660492  
     560A      3.667146   561A      3.678336   562A      3.685294  
     563A      3.701000   564A      3.713151   565A      3.732613  
     566A      3.735595   567A      3.751954   568A      3.763728  
     569A      3.786198   570A      3.790834   571A      3.804226  
     572A      3.816243   573A      3.834729   574A      3.842263  
     575A      3.858184   576A      3.862500   577A      3.884144  
     578A      3.888442   579A      3.891885   580A      3.903670  
     581A      3.912888   582A      3.937136   583A      3.943678  
     584A      3.954359   585A      3.966039   586A      3.979169  
     587A      3.980709   588A      3.998455   589A      4.013211  
     590A      4.025891   591A      4.034802   592A      4.051575  
     593A      4.057576   594A      4.070651   595A      4.102254  
     596A      4.105419   597A      4.119039   598A      4.126838  
     599A      4.137640   600A      4.140284   601A      4.157817  
     602A      4.166729   603A      4.171611   604A      4.186044  
     605A      4.203686   606A      4.213655   607A      4.219365  
     608A      4.236312   609A      4.246850   610A      4.249916  
     611A      4.254105   612A      4.261191   613A      4.273098  
     614A      4.276406   615A      4.291870   616A      4.299849  
     617A      4.319417   618A      4.345004   619A      4.360861  
     620A      4.371029   621A      4.390792   622A      4.408978  
     623A      4.412257   624A      4.426585   625A      4.451874  
     626A      4.456300   627A      4.479904   628A      4.511856  
     629A      4.531035   630A      4.549790   631A      4.565500  
     632A      4.586435   633A      4.615611   634A      4.635182  
     635A      4.651161   636A      4.665140   637A      4.684860  
     638A      4.696544   639A      4.698014   640A      4.711379  
     641A      4.720850   642A      4.803685   643A      4.827113  
     644A      4.829221   645A      4.834730   646A      4.878169  
     647A      4.885060   648A      4.899984   649A      4.915589  
     650A      4.943125   651A      4.952935   652A      4.969258  
     653A      5.002374   654A      5.043324   655A      5.064082  
     656A      5.085089   657A      5.096324   658A      5.140574  
     659A      5.163036   660A      5.177987   661A      5.190073  
     662A      5.218678   663A      5.239007   664A      5.263019  
     665A      5.283600   666A      5.331180   667A      5.348051  
     668A      5.356454   669A      5.385373   670A      5.401984  
     671A      5.453861   672A      5.480224   673A      5.515483  
     674A      5.588969   675A      5.625925   676A      5.637972  
     677A      5.654259   678A      5.679857   679A      5.710488  
     680A      5.733429   681A      5.743008   682A      5.855608  
     683A      5.928643   684A      6.061611   685A      6.145031  
     686A      6.198160   687A      6.329948   688A      6.409660  
     689A      6.425712   690A      6.580712   691A      6.776848  
     692A      6.838321   693A      6.867241   694A      6.902380  
     695A      6.914648   696A      7.091258   697A      7.131398  
     698A      7.210360   699A      7.467917   700A     10.744513  
     701A     10.755251   702A     11.318942   703A     22.053970  
     704A     22.256470   705A     22.329283   706A     22.423667  
     707A     22.490733   708A     22.500747   709A     22.547128  
     710A     22.587070   711A     22.666893   712A     22.691950  
     713A     22.748015   714A     22.768546   715A     22.818728  
     716A     23.097486   717A     23.163406   718A     23.475180  
     719A     25.656964   720A     32.973906   721A     43.991494  
     722A     44.427030  

    Final Occupation by Irrep:
              A 
    DOCC [    76 ]
    NA   [    76 ]
    NB   [    76 ]

  @DF-RKS Final Energy: -1285.11780027608802

   => Energetics <=

    Nuclear Repulsion Energy =           1698.4642722423654959
    One-Electron Energy =               -5130.6605109822248778
    Two-Electron Energy =                2264.6385380727347183
    DFT Exchange-Correlation Energy =    -117.4743776037842906
    Empirical Dispersion Energy =          -0.0857220051794615
    VV10 Nonlocal Energy =                  0.0000000000000000
    Total Energy =                      -1285.1178002760882464

Computation Completed


Properties will be evaluated at   0.000000,   0.000000,   0.000000 [a0]

Properties computed using the SCF density matrix


 Multipole Moments:

 ------------------------------------------------------------------------------------
     Multipole            Electronic (a.u.)      Nuclear  (a.u.)        Total (a.u.)
 ------------------------------------------------------------------------------------

 L = 1.  Multiply by 2.5417464519 to convert [e a0] to [Debye]
 Dipole X            :         58.3741652          -57.5271635            0.8470017
 Dipole Y            :       -183.1250547          182.1364634           -0.9885913
 Dipole Z            :        -52.3404338           50.7492627           -1.5911711
 Magnitude           :                                                    2.0558575

 ------------------------------------------------------------------------------------

*** tstop() called on choehoyun-ui-MacBookAir.local at Sun Aug  9 10:48:37 2026
Module time:
	user time   =    1122.02 seconds =      18.70 minutes
	system time =      24.25 seconds =       0.40 minutes
	total time  =        198 seconds =       3.30 minutes
Total time:
	user time   =    1122.02 seconds =      18.70 minutes
	system time =      24.25 seconds =       0.40 minutes
	total time  =        198 seconds =       3.30 minutes

    Psi4 stopped on: Sunday, 09 August 2026 10:48AM
    Psi4 wall time for execution: 0:03:18.07

*** Psi4 exiting successfully. Buy a developer a beer!
