
    -----------------------------------------------------------------------
          Psi4: An Open-Source Ab Initio Electronic Structure Package
                               Psi4 1.11 release

                         Git: Rev {} zzzzzzz 


    D. G. A. Smith, L. A. Burns, A. C. Simmonett, R. M. Parrish,
    M. C. Schieber, R. Galvelis, P. Kraus, H. Kruse, R. Di Remigio,
    A. Alenaizan, A. M. James, S. Lehtola, J. P. Misiewicz, M. Scheurer,
    R. A. Shaw, J. B. Schriber, Y. Xie, Z. L. Glick, D. A. Sirianni,
    J. S. O'Brien, J. M. Waldrop, A. Kumar, E. G. Hohenstein,
    B. P. Pritchard, B. R. Brooks, H. F. Schaefer III, A. Yu. Sokolov,
    K. Patkowski, A. E. DePrince III, U. Bozkaya, R. A. King,
    F. A. Evangelista, J. M. Turney, T. D. Crawford, C. D. Sherrill,
    J. Chem. Phys. 152(18) 184108 (2020). https://doi.org/10.1063/5.0006002

                            Additional Code Authors
    E. T. Seidl, C. L. Janssen, E. F. Valeev, M. L. Leininger,
    J. F. Gonthier, R. M. Richard, H. R. McAlexander, M. Saitow, X. Wang,
    P. Verma, M. H. Lechner, A. Jiang, S. Behnle, A. G. Heide,
    M. F. Herbst, D. L. Poole, T. Győri, E. C. Mitchell, J. P. Pederson,
    and A. M. Wallace

             Previous Authors, Complete List of Code Contributors,
                       and Citations for Specific Modules
    https://github.com/psi4/psi4/blob/master/codemeta.json
    https://github.com/psi4/psi4/graphs/contributors
    https://psicode.org/psi4manual/master/introduction.html#citing-psifour

    -----------------------------------------------------------------------


    Psi4 started on: Sunday, 09 August 2026 03:59PM

    Process ID: 61091
    Host:       choehoyun-ui-MacBookAir.local
    PSIDATADIR: /Users/hoyoun/micromamba/envs/psi4env/share/psi4
    Memory:     500.0 MiB
    Threads:    8
    Addons:     a̶d̶c̶c̶, a̶m̶b̶i̶t̶, b̶s̶e̶, c̶c̶t̶3̶, c̶f̶o̶u̶r̶, c̶h̶e̶m̶p̶s̶2̶, c̶p̶p̶e̶, d̶d̶x̶, dftd3,
                d̶f̶t̶d̶4̶, dkh, ecpint, einsums, f̶o̶r̶t̶e̶, gauxc, g̶c̶p̶, g̶d̶m̶a̶,
                g̶e̶o̶m̶e̶t̶r̶i̶c̶, g̶p̶u̶_̶d̶f̶c̶c̶, i̶n̶t̶e̶g̶r̶a̶t̶o̶r̶x̶x̶, i̶p̶i̶,
                l̶i̶b̶e̶f̶p̶, m̶d̶i̶, m̶p̶2̶d̶, m̶r̶c̶c̶, ooo, o̶p̶e̶n̶f̶e̶r̶m̶i̶o̶n̶p̶s̶i̶4̶,
                pcmsolver, p̶s̶i̶4̶f̶o̶c̶k̶c̶i̶, p̶s̶i̶x̶a̶s̶, p̶y̶e̶i̶n̶s̶u̶m̶s̶, r̶e̶s̶p̶,
                s̶i̶m̶i̶n̶t̶, s̶n̶s̶m̶p̶2̶, v̶2̶r̶d̶m̶_̶c̶a̶s̶s̶c̶f̶

  ==> Input File <==

--------------------------------------------------------------------------
memory 3 GB
molecule mol {
0 1
H -1.71027300670310 -2.52400735527642 3.11440624666291
C -2.31968514267138 -2.82771112034729 2.26180410235821
H -3.37384262244910 -2.64129458865502 2.48323241969390
H -2.17445766000898 -3.90431476861861 2.12337640397809
C -1.82200584208548 -2.10662889353852 1.02229919237002
O -0.62320975280825 -2.00246874385570 0.76704259633979
N -2.78235343074175 -1.55993302711634 0.21719396247561
H -3.74651389889740 -1.79476644303746 0.41248855103623
C -2.47936505769643 -1.08391586183496 -1.13634886559623
H -2.06061086221271 -1.90299576703069 -1.73127413246569
C -3.75249222075728 -0.55980189839016 -1.80617126129087
H -4.19000399255758 0.27367034104155 -1.24621746522820
H -3.51981861198854 -0.20937774571935 -2.81410731677752
H -4.50311661151914 -1.35335519082887 -1.89058352289943
C -1.36593919953266 -0.01843888516226 -1.13785697513807
O -0.45421603470312 -0.06908410393396 -1.95285971597669
N -1.49235936269148 0.97743576909643 -0.21998460813124
H -2.35355299112104 1.05229154907270 0.30545714084147
C -0.59266792494862 2.12572820985202 -0.19083569375559
H -0.65026611898421 2.69298604898218 -1.12435070527839
C -0.97373851058422 3.03377463554487 0.97405613385893
H -0.97121417071409 2.45576177390896 1.91121031981574
H -0.21114043924230 3.81929368915808 1.05545875035231
O -2.25964088571706 3.57865972211096 0.69136590058118
H -2.49101165066736 4.18880200356541 1.40244225259484
C 0.88953709646028 1.70503733002430 -0.04613702423017
O 1.76750010251929 2.30673660283738 -0.64276107112821
N 1.12809768792723 0.77251477818947 0.92716789653946
H 0.35383484426046 0.15937122055742 1.16218549840979
C 2.47135013595582 0.22497765758802 1.13511297169099
H 3.14057980713583 1.06186953382096 1.34550019649577
C 2.45368888993442 -0.74605165247592 2.31884627878558
H 1.76636692931916 -1.57805623425932 2.13241303726453
H 3.45589668995644 -1.15342412299972 2.47430726182036
H 2.14383923533560 -0.23126268579675 3.23473918117514
C 3.10004063799279 -0.44260516701487 -0.11153008695497
O 4.29007895396924 -0.28048661607325 -0.35633744076817
N 2.28992649020459 -1.30584410822793 -0.78585312530316
H 1.29617595379964 -1.27539854405309 -0.60445387885476
C 2.71472413232918 -1.94049792148401 -2.02121504975604
H 3.78518341933633 -1.76490644360959 -2.13348750407405
H 2.52808767829230 -3.01991066623278 -1.98628384615994
H 2.18502739058516 -1.51849342378984 -2.88227120852975
units angstrom
no_reorient
no_com
}
set basis def2-TZVP
set scf_type disk_df
set freeze_core true
set e_convergence 8
energy('b3lyp-d3bj')
--------------------------------------------------------------------------

  Memory set to   2.794 GiB by Python driver.

Scratch directory: /Users/hoyoun/Documents/Yonsei_AX_Camp/(진짜_이게_최종)/calibration/dft_work/_scratch/SER_aR/
   => Libint2 <=

    Primary   basis highest AM E, G, H:  7, 6, 3
    Auxiliary basis highest AM E, G, H:  7, 7, 4
    Onebody   basis highest AM E, G, H:  -, -, -
    Solid Harmonics ordering:            Gaussian

*** tstart() called on choehoyun-ui-MacBookAir.local
*** at Sun Aug  9 15:59:58 2026

   => Loading Basis Set <=

    Name: DEF2-TZVP
    Role: ORBITAL
    Keyword: BASIS
    atoms 1, 3-4, 8, 10, 12-14, 18, 20, 22-23, 25, 29, 31, 33-35, 39, 41-43 entry H          line    15 file /Users/hoyoun/micromamba/envs/psi4env/share/psi4/basis/def2-tzvp.gbs 
    atoms 2, 5, 9, 11, 15, 19, 21, 26, 30, 32, 36, 40                       entry C          line   123 file /Users/hoyoun/micromamba/envs/psi4env/share/psi4/basis/def2-tzvp.gbs 
    atoms 6, 16, 24, 27, 37                                                 entry O          line   189 file /Users/hoyoun/micromamba/envs/psi4env/share/psi4/basis/def2-tzvp.gbs 
    atoms 7, 17, 28, 38                                                     entry N          line   156 file /Users/hoyoun/micromamba/envs/psi4env/share/psi4/basis/def2-tzvp.gbs 

   => B3LYP-D3(BJ): Empirical Dispersion <=

    Grimme's -D3 (BJ-damping) Dispersion Correction
    Grimme S.; Ehrlich S.; Goerigk L. (2011), J. Comput. Chem., 32: 1456

        s6 =       1.000000
        s8 =       1.988900
        a1 =       0.398100
        a2 =       4.421100


         ---------------------------------------------------------
                                   SCF
               by Justin Turney, Rob Parrish, Andy Simmonett
                          and Daniel G. A. Smith
                              RKS Reference
                        8 Threads,   2861 MiB Core
         ---------------------------------------------------------

  ==> Geometry <==

    Molecular point group: c1
    Full point group: C1

    Geometry (in Angstrom), charge = 0, multiplicity = 1:

       Center              X                  Y                   Z               Mass       
    ------------   -----------------  -----------------  -----------------  -----------------
         H           -1.710273006703    -2.524007355276     3.114406246663     1.007825032230
         C           -2.319685142671    -2.827711120347     2.261804102358    12.000000000000
         H           -3.373842622449    -2.641294588655     2.483232419694     1.007825032230
         H           -2.174457660009    -3.904314768619     2.123376403978     1.007825032230
         C           -1.822005842085    -2.106628893539     1.022299192370    12.000000000000
         O           -0.623209752808    -2.002468743856     0.767042596340    15.994914619570
         N           -2.782353430742    -1.559933027116     0.217193962476    14.003074004430
         H           -3.746513898897    -1.794766443037     0.412488551036     1.007825032230
         C           -2.479365057696    -1.083915861835    -1.136348865596    12.000000000000
         H           -2.060610862213    -1.902995767031    -1.731274132466     1.007825032230
         C           -3.752492220757    -0.559801898390    -1.806171261291    12.000000000000
         H           -4.190003992558     0.273670341042    -1.246217465228     1.007825032230
         H           -3.519818611989    -0.209377745719    -2.814107316778     1.007825032230
         H           -4.503116611519    -1.353355190829    -1.890583522899     1.007825032230
         C           -1.365939199533    -0.018438885162    -1.137856975138    12.000000000000
         O           -0.454216034703    -0.069084103934    -1.952859715977    15.994914619570
         N           -1.492359362691     0.977435769096    -0.219984608131    14.003074004430
         H           -2.353552991121     1.052291549073     0.305457140841     1.007825032230
         C           -0.592667924949     2.125728209852    -0.190835693756    12.000000000000
         H           -0.650266118984     2.692986048982    -1.124350705278     1.007825032230
         C           -0.973738510584     3.033774635545     0.974056133859    12.000000000000
         H           -0.971214170714     2.455761773909     1.911210319816     1.007825032230
         H           -0.211140439242     3.819293689158     1.055458750352     1.007825032230
         O           -2.259640885717     3.578659722111     0.691365900581    15.994914619570
         H           -2.491011650667     4.188802003565     1.402442252595     1.007825032230
         C            0.889537096460     1.705037330024    -0.046137024230    12.000000000000
         O            1.767500102519     2.306736602837    -0.642761071128    15.994914619570
         N            1.128097687927     0.772514778189     0.927167896539    14.003074004430
         H            0.353834844260     0.159371220557     1.162185498410     1.007825032230
         C            2.471350135956     0.224977657588     1.135112971691    12.000000000000
         H            3.140579807136     1.061869533821     1.345500196496     1.007825032230
         C            2.453688889934    -0.746051652476     2.318846278786    12.000000000000
         H            1.766366929319    -1.578056234259     2.132413037265     1.007825032230
         H            3.455896689956    -1.153424123000     2.474307261820     1.007825032230
         H            2.143839235336    -0.231262685797     3.234739181175     1.007825032230
         C            3.100040637993    -0.442605167015    -0.111530086955    12.000000000000
         O            4.290078953969    -0.280486616073    -0.356337440768    15.994914619570
         N            2.289926490205    -1.305844108228    -0.785853125303    14.003074004430
         H            1.296175953800    -1.275398544053    -0.604453878855     1.007825032230
         C            2.714724132329    -1.940497921484    -2.021215049756    12.000000000000
         H            3.785183419336    -1.764906443610    -2.133487504074     1.007825032230
         H            2.528087678292    -3.019910666233    -1.986283846160     1.007825032230
         H            2.185027390585    -1.518493423790    -2.882271208530     1.007825032230

  Running in c1 symmetry.

  Rotational constants: A =      0.01168  B =      0.00822  C =      0.00666 [cm^-1]
  Rotational constants: A =    350.19429  B =    246.56219  C =    199.63335 [MHz]
  Nuclear repulsion = 1906.557487696040198

  Charge       = 0
  Multiplicity = 1
  Electrons    = 162
  Nalpha       = 81
  Nbeta        = 81

  ==> Algorithm <==

  SCF Algorithm Type is DISK_DF.
  DIIS enabled.
  MOM disabled.
  Fractional occupation disabled.
  Guess Type is SAD.
  Energy threshold   = 1.00e-08
  Density threshold  = 1.00e-06
  Integral threshold = 1.00e-12

  ==> Primary Basis <==

  Basis Set: DEF2-TZVP
    Blend: DEF2-TZVP
    Number of shells: 319
    Number of basis functions: 783
    Number of Cartesian functions: 888
    Spherical Harmonics?: true
    Max angular momentum: 3

  ==> DFT Potential <==

   => LibXC <=

    Version 7.1.2
    S. Lehtola, C. Steigemann, M. J. T. Oliveira, and M. A. L. Marques,  SoftwareX 7, 1–5 (2018) (10.1016/j.softx.2017.11.002)

   => Composite Functional: B3LYP-D3BJ2B <= 

    B3LYP-d3bj2b Hyb-GGA Exchange-Correlation Functional

    P. J. Stephens, F. J. Devlin, C. F. Chabalowski, and M. J. Frisch,  J. Phys. Chem. 98, 11623 (1994) (10.1021/j100096a001)

    Deriv               =              1
    GGA                 =           TRUE
    Meta                =          FALSE

    Exchange Hybrid     =           TRUE
    MP2 Hybrid          =          FALSE

   => Exchange Functionals <=

    0.0800   Slater exchange
    0.7200         Becke 88

   => Exact (HF) Exchange <=

    0.2000               HF 

   => Correlation Functionals <=

    0.1900   Vosko, Wilk & Nusair (VWN5_RPA)
    0.8100   Lee, Yang & Parr

   => LibXC Density Thresholds  <==

    XC_HYB_GGA_XC_B3LYP:  1.00E-15 

   => Molecular Quadrature <=

    Radial Scheme          =       TREUTLER
    Pruning Scheme         =           NONE
    Nuclear Scheme         =       TREUTLER

    Blocking Scheme        =         OCTREE
    BS radius alpha        =              1
    Pruning alpha          =              1
    Radial Points          =             75
    Spherical Points       =            302
    Total Points           =         882707
    Total Blocks           =           6178
    Max Points             =            256
    Max Functions          =            588
    Weights Tolerance      =       1.00E-15

   => Loading Basis Set <=

    Name: (DEF2-TZVP AUX)
    Role: JKFIT
    Keyword: DF_BASIS_SCF
    atoms 1, 3-4, 8, 10, 12-14, 18, 20, 22-23, 25, 29, 31, 33-35, 39, 41-43 entry H          line    18 file /Users/hoyoun/micromamba/envs/psi4env/share/psi4/basis/def2-universal-jkfit.gbs 
    atoms 2, 5, 9, 11, 15, 19, 21, 26, 30, 32, 36, 40                       entry C          line   198 file /Users/hoyoun/micromamba/envs/psi4env/share/psi4/basis/def2-universal-jkfit.gbs 
    atoms 6, 16, 24, 27, 37                                                 entry O          line   318 file /Users/hoyoun/micromamba/envs/psi4env/share/psi4/basis/def2-universal-jkfit.gbs 
    atoms 7, 17, 28, 38                                                     entry N          line   258 file /Users/hoyoun/micromamba/envs/psi4env/share/psi4/basis/def2-universal-jkfit.gbs 

  ==> Integral Setup <==

  ==> DiskDFJK: Density-Fitted J/K Matrices <==

    J tasked:                  Yes
    K tasked:                  Yes
    wK tasked:                  No
    OpenMP threads:              8
    Integrals threads:           8
    Memory [MiB]:             1931
    Algorithm:                Disk
    Integral Cache:           NONE
    Schwarz Cutoff:          1E-12
    Fitting Condition:       1E-10

   => Auxiliary Basis Set <=

  Basis Set: (DEF2-TZVP AUX)
    Blend: DEF2-UNIVERSAL-JKFIT
    Number of shells: 657
    Number of basis functions: 1989
    Number of Cartesian functions: 2345
    Spherical Harmonics?: true
    Max angular momentum: 4

  Cached 2.4% of DFT collocation blocks in 0.204 [GiB].

  Minimum eigenvalue in the overlap matrix is 7.8886276760E-05.
  Reciprocal condition number of the overlap matrix is 7.6730021769E-06.
    Using symmetric orthogonalization.

  ==> Pre-Iterations <==

  SCF Guess: Superposition of Atomic Densities via on-the-fly atomic UHF (no occupation information).

   -------------------------
    Irrep   Nso     Nmo    
   -------------------------
     A        783     783 
   -------------------------
    Total     783     783
   -------------------------

  ==> Iterations <==

                           Total Energy        Delta E     RMS |[F,P]|

   @DF-RKS iter SAD: -1064.79817815099068   -1.06480e+03   0.00000e+00 
   @DF-RKS iter   1: -1064.58664082131531    2.11537e-01   2.50767e-03 DIIS/ADIIS
   @DF-RKS iter   2: -1063.56885500611884    1.01779e+00   3.16005e-03 DIIS/ADIIS
   @DF-RKS iter   3: -1066.15596576708231   -2.58711e+00   5.78571e-04 DIIS/ADIIS
   @DF-RKS iter   4: -1066.21630712453089   -6.03414e-02   2.56309e-04 DIIS/ADIIS
   @DF-RKS iter   5: -1066.23004945592356   -1.37423e-02   1.03509e-04 DIIS/ADIIS
   @DF-RKS iter   6: -1066.23261234747952   -2.56289e-03   1.88913e-05 DIIS
   @DF-RKS iter   7: -1066.23268362471117   -7.12772e-05   8.01232e-06 DIIS
   @DF-RKS iter   8: -1066.23269575279937   -1.21281e-05   2.99986e-06 DIIS
   @DF-RKS iter   9: -1066.23269764818133   -1.89538e-06   8.88595e-07 DIIS
   @DF-RKS iter  10: -1066.23269782466809   -1.76487e-07   2.59251e-07 DIIS
   @DF-RKS iter  11: -1066.23269783789715   -1.32291e-08   9.75262e-08 DIIS
   @DF-RKS iter  12: -1066.23269783958131   -1.68416e-09   4.78994e-08 DIIS
  Energy and wave function converged.


  ==> Post-Iterations <==

   Electrons on quadrature grid:
      Ntotal   =  161.9999026322 ; deviation = -9.737e-05 

    Orbital Energies [Eh]
    ---------------------

    Doubly Occupied:                                                      

       1A    -19.153864     2A    -19.125659     3A    -19.108376  
       4A    -19.088070     5A    -19.063260     6A    -14.379449  
       7A    -14.360072     8A    -14.335855     9A    -14.313053  
      10A    -10.309553    11A    -10.290583    12A    -10.269773  
      13A    -10.250194    14A    -10.245204    15A    -10.244908  
      16A    -10.230467    17A    -10.207484    18A    -10.206717  
      19A    -10.205111    20A    -10.175230    21A    -10.164075  
      22A     -1.071723    23A     -1.056339    24A     -1.049295  
      25A     -1.033373    26A     -1.007582    27A     -0.963247  
      28A     -0.944390    29A     -0.920479    30A     -0.892507  
      31A     -0.816326    32A     -0.784325    33A     -0.760811  
      34A     -0.755833    35A     -0.686376    36A     -0.685900  
      37A     -0.659425    38A     -0.633486    39A     -0.626712  
      40A     -0.609696    41A     -0.584169    42A     -0.556980  
      43A     -0.550645    44A     -0.546147    45A     -0.536908  
      46A     -0.522171    47A     -0.511979    48A     -0.496915  
      49A     -0.483292    50A     -0.475712    51A     -0.463798  
      52A     -0.462141    53A     -0.449265    54A     -0.445591  
      55A     -0.440787    56A     -0.437692    57A     -0.432927  
      58A     -0.425273    59A     -0.420396    60A     -0.417252  
      61A     -0.413138    62A     -0.409981    63A     -0.403061  
      64A     -0.400125    65A     -0.388992    66A     -0.383667  
      67A     -0.379359    68A     -0.375536    69A     -0.366131  
      70A     -0.360948    71A     -0.350295    72A     -0.338807  
      73A     -0.309138    74A     -0.307934    75A     -0.293329  
      76A     -0.289002    77A     -0.273691    78A     -0.271926  
      79A     -0.251214    80A     -0.233057    81A     -0.226660  

    Virtual:                                                              

      82A     -0.024384    83A     -0.009951    84A     -0.008208  
      85A      0.002141    86A      0.019124    87A      0.026198  
      88A      0.040278    89A      0.041495    90A      0.049270  
      91A      0.054180    92A      0.066154    93A      0.070633  
      94A      0.075703    95A      0.083804    96A      0.085133  
      97A      0.091387    98A      0.096839    99A      0.101195  
     100A      0.107719   101A      0.111441   102A      0.113936  
     103A      0.118229   104A      0.123798   105A      0.124390  
     106A      0.126407   107A      0.132830   108A      0.139088  
     109A      0.140630   110A      0.147819   111A      0.150151  
     112A      0.151904   113A      0.163348   114A      0.168014  
     115A      0.171979   116A      0.183290   117A      0.187578  
     118A      0.191548   119A      0.198689   120A      0.200337  
     121A      0.205297   122A      0.213086   123A      0.217902  
     124A      0.226936   125A      0.230029   126A      0.241377  
     127A      0.242317   128A      0.251137   129A      0.254865  
     130A      0.257010   131A      0.267162   132A      0.275708  
     133A      0.283932   134A      0.286740   135A      0.289144  
     136A      0.292703   137A      0.298724   138A      0.302190  
     139A      0.314502   140A      0.318056   141A      0.321942  
     142A      0.323273   143A      0.333791   144A      0.335105  
     145A      0.340198   146A      0.342946   147A      0.352315  
     148A      0.355446   149A      0.363699   150A      0.366240  
     151A      0.371331   152A      0.375269   153A      0.379493  
     154A      0.386838   155A      0.395623   156A      0.398289  
     157A      0.399907   158A      0.401354   159A      0.403019  
     160A      0.407777   161A      0.409902   162A      0.412605  
     163A      0.420162   164A      0.423005   165A      0.430256  
     166A      0.433932   167A      0.435614   168A      0.437189  
     169A      0.439889   170A      0.444092   171A      0.448096  
     172A      0.449460   173A      0.455928   174A      0.464043  
     175A      0.469528   176A      0.470313   177A      0.471220  
     178A      0.475907   179A      0.477635   180A      0.482283  
     181A      0.489298   182A      0.492036   183A      0.493007  
     184A      0.494495   185A      0.500915   186A      0.510710  
     187A      0.516791   188A      0.521039   189A      0.529169  
     190A      0.533983   191A      0.541048   192A      0.544863  
     193A      0.547429   194A      0.551268   195A      0.557753  
     196A      0.565106   197A      0.572335   198A      0.577917  
     199A      0.587119   200A      0.591850   201A      0.607716  
     202A      0.610985   203A      0.617315   204A      0.626695  
     205A      0.632640   206A      0.634056   207A      0.645799  
     208A      0.652972   209A      0.659771   210A      0.668003  
     211A      0.679835   212A      0.689056   213A      0.701503  
     214A      0.709852   215A      0.714807   216A      0.719653  
     217A      0.731716   218A      0.734269   219A      0.748343  
     220A      0.751923   221A      0.764398   222A      0.767938  
     223A      0.781391   224A      0.789412   225A      0.789901  
     226A      0.796010   227A      0.803191   228A      0.807426  
     229A      0.814060   230A      0.817896   231A      0.825187  
     232A      0.830863   233A      0.836604   234A      0.858632  
     235A      0.860356   236A      0.867396   237A      0.873181  
     238A      0.879436   239A      0.883108   240A      0.889702  
     241A      0.896463   242A      0.903929   243A      0.906854  
     244A      0.917124   245A      0.924656   246A      0.934445  
     247A      0.937298   248A      0.944300   249A      0.955656  
     250A      0.960541   251A      0.967507   252A      0.969229  
     253A      0.980125   254A      0.983476   255A      0.997797  
     256A      1.002663   257A      1.009825   258A      1.016298  
     259A      1.022998   260A      1.029664   261A      1.055352  
     262A      1.069135   263A      1.081120   264A      1.081825  
     265A      1.088804   266A      1.108138   267A      1.110150  
     268A      1.121448   269A      1.132412   270A      1.139370  
     271A      1.141701   272A      1.148218   273A      1.162239  
     274A      1.168690   275A      1.175308   276A      1.182715  
     277A      1.194448   278A      1.198970   279A      1.217954  
     280A      1.223681   281A      1.235655   282A      1.258800  
     283A      1.261967   284A      1.270520   285A      1.289089  
     286A      1.305206   287A      1.313721   288A      1.320971  
     289A      1.326527   290A      1.335013   291A      1.339091  
     292A      1.354491   293A      1.368511   294A      1.370656  
     295A      1.392389   296A      1.401385   297A      1.412521  
     298A      1.422964   299A      1.425928   300A      1.435245  
     301A      1.444188   302A      1.451171   303A      1.452029  
     304A      1.469546   305A      1.472204   306A      1.475982  
     307A      1.481582   308A      1.485604   309A      1.494321  
     310A      1.498651   311A      1.502179   312A      1.506441  
     313A      1.511008   314A      1.513886   315A      1.523126  
     316A      1.529032   317A      1.531088   318A      1.536246  
     319A      1.542591   320A      1.543901   321A      1.548812  
     322A      1.552821   323A      1.558252   324A      1.566192  
     325A      1.568372   326A      1.579183   327A      1.581655  
     328A      1.593014   329A      1.594970   330A      1.607991  
     331A      1.612584   332A      1.615921   333A      1.620921  
     334A      1.626944   335A      1.635048   336A      1.637983  
     337A      1.650889   338A      1.659728   339A      1.665465  
     340A      1.684200   341A      1.689520   342A      1.700990  
     343A      1.706047   344A      1.719790   345A      1.731453  
     346A      1.743520   347A      1.747887   348A      1.756406  
     349A      1.773226   350A      1.782990   351A      1.793748  
     352A      1.799853   353A      1.807724   354A      1.820733  
     355A      1.836061   356A      1.840364   357A      1.846660  
     358A      1.850412   359A      1.854493   360A      1.865510  
     361A      1.872438   362A      1.875822   363A      1.884501  
     364A      1.898861   365A      1.903955   366A      1.921406  
     367A      1.935430   368A      1.940890   369A      1.966409  
     370A      1.967656   371A      1.970967   372A      1.974750  
     373A      1.985455   374A      1.993605   375A      1.998034  
     376A      2.001950   377A      2.010273   378A      2.020831  
     379A      2.032011   380A      2.033286   381A      2.050864  
     382A      2.058045   383A      2.062561   384A      2.073639  
     385A      2.084517   386A      2.089739   387A      2.092012  
     388A      2.100890   389A      2.115914   390A      2.122528  
     391A      2.125265   392A      2.132860   393A      2.141205  
     394A      2.158902   395A      2.165360   396A      2.178838  
     397A      2.187683   398A      2.192283   399A      2.198204  
     400A      2.201174   401A      2.223963   402A      2.230204  
     403A      2.233333   404A      2.238534   405A      2.243980  
     406A      2.255761   407A      2.265357   408A      2.266833  
     409A      2.279088   410A      2.284606   411A      2.286333  
     412A      2.299276   413A      2.303101   414A      2.309257  
     415A      2.315033   416A      2.324959   417A      2.330509  
     418A      2.336348   419A      2.344656   420A      2.356503  
     421A      2.358684   422A      2.363895   423A      2.370435  
     424A      2.378674   425A      2.384917   426A      2.395443  
     427A      2.401880   428A      2.410427   429A      2.420669  
     430A      2.436929   431A      2.442208   432A      2.448583  
     433A      2.451362   434A      2.468396   435A      2.473156  
     436A      2.480332   437A      2.496485   438A      2.500308  
     439A      2.509800   440A      2.515545   441A      2.519439  
     442A      2.531919   443A      2.537248   444A      2.547332  
     445A      2.554121   446A      2.559234   447A      2.566997  
     448A      2.576925   449A      2.581484   450A      2.583381  
     451A      2.596561   452A      2.600720   453A      2.607754  
     454A      2.619049   455A      2.622548   456A      2.632350  
     457A      2.636738   458A      2.642579   459A      2.650720  
     460A      2.671841   461A      2.688029   462A      2.692175  
     463A      2.698071   464A      2.710703   465A      2.714759  
     466A      2.723355   467A      2.743819   468A      2.745045  
     469A      2.753807   470A      2.759045   471A      2.769153  
     472A      2.772054   473A      2.790199   474A      2.812110  
     475A      2.813567   476A      2.822827   477A      2.831616  
     478A      2.841693   479A      2.849556   480A      2.851885  
     481A      2.867168   482A      2.879976   483A      2.887825  
     484A      2.892297   485A      2.904977   486A      2.919882  
     487A      2.928208   488A      2.931955   489A      2.945591  
     490A      2.953788   491A      2.961821   492A      2.973606  
     493A      2.976526   494A      2.986713   495A      3.008226  
     496A      3.012479   497A      3.020893   498A      3.034554  
     499A      3.040015   500A      3.053046   501A      3.054458  
     502A      3.063381   503A      3.072430   504A      3.076668  
     505A      3.083210   506A      3.094814   507A      3.102798  
     508A      3.105606   509A      3.109696   510A      3.112208  
     511A      3.118926   512A      3.129320   513A      3.135138  
     514A      3.141493   515A      3.154117   516A      3.159912  
     517A      3.165938   518A      3.169188   519A      3.175831  
     520A      3.181274   521A      3.187577   522A      3.196955  
     523A      3.213197   524A      3.222446   525A      3.227409  
     526A      3.232391   527A      3.234189   528A      3.241806  
     529A      3.244679   530A      3.248994   531A      3.261560  
     532A      3.271128   533A      3.281223   534A      3.284497  
     535A      3.288479   536A      3.296582   537A      3.299412  
     538A      3.310115   539A      3.315923   540A      3.321584  
     541A      3.329681   542A      3.331424   543A      3.338096  
     544A      3.346467   545A      3.348278   546A      3.365562  
     547A      3.370195   548A      3.380013   549A      3.387006  
     550A      3.400626   551A      3.406254   552A      3.411611  
     553A      3.414438   554A      3.420551   555A      3.439115  
     556A      3.444170   557A      3.449404   558A      3.453112  
     559A      3.460541   560A      3.470530   561A      3.474733  
     562A      3.487713   563A      3.502835   564A      3.509620  
     565A      3.523239   566A      3.532603   567A      3.542773  
     568A      3.546797   569A      3.552088   570A      3.564208  
     571A      3.589040   572A      3.595899   573A      3.609181  
     574A      3.616806   575A      3.620859   576A      3.625812  
     577A      3.637766   578A      3.653914   579A      3.658551  
     580A      3.665445   581A      3.674982   582A      3.682449  
     583A      3.687445   584A      3.716565   585A      3.731914  
     586A      3.740179   587A      3.744636   588A      3.753613  
     589A      3.764109   590A      3.782534   591A      3.786824  
     592A      3.800272   593A      3.819774   594A      3.822036  
     595A      3.835573   596A      3.843770   597A      3.865599  
     598A      3.877738   599A      3.886814   600A      3.893631  
     601A      3.923801   602A      3.931022   603A      3.945559  
     604A      3.948652   605A      3.959192   606A      3.968920  
     607A      3.977991   608A      3.990956   609A      4.012554  
     610A      4.018546   611A      4.021072   612A      4.028357  
     613A      4.037547   614A      4.053244   615A      4.067473  
     616A      4.070642   617A      4.091875   618A      4.110028  
     619A      4.114690   620A      4.146015   621A      4.154419  
     622A      4.166611   623A      4.172870   624A      4.248361  
     625A      4.257562   626A      4.268230   627A      4.284264  
     628A      4.299706   629A      4.314276   630A      4.322554  
     631A      4.349888   632A      4.364980   633A      4.368999  
     634A      4.372878   635A      4.389839   636A      4.411257  
     637A      4.422443   638A      4.425471   639A      4.448345  
     640A      4.466481   641A      4.476523   642A      4.483132  
     643A      4.519493   644A      4.529903   645A      4.543515  
     646A      4.550218   647A      4.589404   648A      4.659268  
     649A      4.662624   650A      4.680862   651A      4.699617  
     652A      4.717843   653A      4.734170   654A      4.751398  
     655A      4.758675   656A      4.777980   657A      4.781243  
     658A      4.792574   659A      4.819559   660A      4.833529  
     661A      4.858369   662A      4.877331   663A      4.891681  
     664A      4.913182   665A      4.930078   666A      4.960206  
     667A      4.993307   668A      5.012001   669A      5.041586  
     670A      5.049085   671A      5.058789   672A      5.074834  
     673A      5.094212   674A      5.110328   675A      5.114642  
     676A      5.146779   677A      5.153236   678A      5.171261  
     679A      5.177484   680A      5.182833   681A      5.189563  
     682A      5.216169   683A      5.223815   684A      5.232796  
     685A      5.241135   686A      5.242943   687A      5.253071  
     688A      5.266917   689A      5.281209   690A      5.297313  
     691A      5.305176   692A      5.319963   693A      5.334200  
     694A      5.337605   695A      5.353561   696A      5.358787  
     697A      5.394544   698A      5.405367   699A      5.422749  
     700A      5.436248   701A      5.449915   702A      5.464111  
     703A      5.488957   704A      5.501550   705A      5.533196  
     706A      5.585593   707A      5.598957   708A      5.627471  
     709A      5.648457   710A      5.667325   711A      5.691402  
     712A      5.697751   713A      5.702920   714A      5.734621  
     715A      5.747259   716A      5.772973   717A      5.831441  
     718A      5.856874   719A      5.869995   720A      5.881547  
     721A      5.885452   722A      5.942346   723A      5.959655  
     724A      5.998953   725A      6.075138   726A      6.166418  
     727A      6.188162   728A      6.201661   729A      6.236522  
     730A      6.294874   731A      6.344221   732A      6.370098  
     733A      6.379929   734A      6.430441   735A      6.439474  
     736A      6.442567   737A      6.454927   738A      6.461357  
     739A      6.559397   740A      6.572165   741A      6.581146  
     742A      6.593789   743A      6.660770   744A      6.668955  
     745A      6.702619   746A      6.716778   747A      6.736744  
     748A      6.739323   749A      6.834200   750A      6.855114  
     751A      6.878183   752A      6.886403   753A      6.950642  
     754A      7.064525   755A      7.094879   756A      7.105604  
     757A      7.107356   758A      7.119021   759A      7.130880  
     760A      7.135763   761A      7.150664   762A      7.156831  
     763A     22.261465   764A     22.308753   765A     22.348037  
     766A     22.411871   767A     22.418448   768A     22.576400  
     769A     22.643378   770A     22.665970   771A     23.244184  
     772A     23.334733   773A     23.375479   774A     23.385443  
     775A     32.439121   776A     32.469736   777A     32.561402  
     778A     32.609261   779A     43.770445   780A     43.936684  
     781A     43.945534   782A     43.973470   783A     44.014286  

    Final Occupation by Irrep:
              A 
    DOCC [    81 ]
    NA   [    81 ]
    NB   [    81 ]

  @DF-RKS Final Energy: -1066.23269783958131

   => Energetics <=

    Nuclear Repulsion Energy =           1906.5574876960401980
    One-Electron Energy =               -5244.8433677745015302
    Two-Electron Energy =                2388.8124183837830969
    DFT Exchange-Correlation Energy =    -116.6763346449747587
    Empirical Dispersion Energy =          -0.0829014999279838
    VV10 Nonlocal Energy =                  0.0000000000000000
    Total Energy =                      -1066.2326978395813057

Computation Completed


Properties will be evaluated at   0.000000,   0.000000,   0.000000 [a0]

Properties computed using the SCF density matrix


 Multipole Moments:

 ------------------------------------------------------------------------------------
     Multipole            Electronic (a.u.)      Nuclear  (a.u.)        Total (a.u.)
 ------------------------------------------------------------------------------------

 L = 1.  Multiply by 2.5417464519 to convert [e a0] to [Debye]
 Dipole X            :          5.8286812          -10.5689925           -4.7403113
 Dipole Y            :          7.5784159           -8.5571532           -0.9787373
 Dipole Z            :         -4.3342162            6.3071519            1.9729357
 Magnitude           :                                                    5.2269449

 ------------------------------------------------------------------------------------

*** tstop() called on choehoyun-ui-MacBookAir.local at Sun Aug  9 16:02:10 2026
Module time:
	user time   =     881.49 seconds =      14.69 minutes
	system time =      16.81 seconds =       0.28 minutes
	total time  =        132 seconds =       2.20 minutes
Total time:
	user time   =     881.49 seconds =      14.69 minutes
	system time =      16.81 seconds =       0.28 minutes
	total time  =        132 seconds =       2.20 minutes

    Psi4 stopped on: Sunday, 09 August 2026 04:02PM
    Psi4 wall time for execution: 0:02:12.63

*** Psi4 exiting successfully. Buy a developer a beer!
