
    -----------------------------------------------------------------------
          Psi4: An Open-Source Ab Initio Electronic Structure Package
                               Psi4 1.11 release

                         Git: Rev {} zzzzzzz 


    D. G. A. Smith, L. A. Burns, A. C. Simmonett, R. M. Parrish,
    M. C. Schieber, R. Galvelis, P. Kraus, H. Kruse, R. Di Remigio,
    A. Alenaizan, A. M. James, S. Lehtola, J. P. Misiewicz, M. Scheurer,
    R. A. Shaw, J. B. Schriber, Y. Xie, Z. L. Glick, D. A. Sirianni,
    J. S. O'Brien, J. M. Waldrop, A. Kumar, E. G. Hohenstein,
    B. P. Pritchard, B. R. Brooks, H. F. Schaefer III, A. Yu. Sokolov,
    K. Patkowski, A. E. DePrince III, U. Bozkaya, R. A. King,
    F. A. Evangelista, J. M. Turney, T. D. Crawford, C. D. Sherrill,
    J. Chem. Phys. 152(18) 184108 (2020). https://doi.org/10.1063/5.0006002

                            Additional Code Authors
    E. T. Seidl, C. L. Janssen, E. F. Valeev, M. L. Leininger,
    J. F. Gonthier, R. M. Richard, H. R. McAlexander, M. Saitow, X. Wang,
    P. Verma, M. H. Lechner, A. Jiang, S. Behnle, A. G. Heide,
    M. F. Herbst, D. L. Poole, T. Győri, E. C. Mitchell, J. P. Pederson,
    and A. M. Wallace

             Previous Authors, Complete List of Code Contributors,
                       and Citations for Specific Modules
    https://github.com/psi4/psi4/blob/master/codemeta.json
    https://github.com/psi4/psi4/graphs/contributors
    https://psicode.org/psi4manual/master/introduction.html#citing-psifour

    -----------------------------------------------------------------------


    Psi4 started on: Sunday, 09 August 2026 12:54PM

    Process ID: 58841
    Host:       choehoyun-ui-MacBookAir.local
    PSIDATADIR: /Users/hoyoun/micromamba/envs/psi4env/share/psi4
    Memory:     500.0 MiB
    Threads:    8
    Addons:     a̶d̶c̶c̶, a̶m̶b̶i̶t̶, b̶s̶e̶, c̶c̶t̶3̶, c̶f̶o̶u̶r̶, c̶h̶e̶m̶p̶s̶2̶, c̶p̶p̶e̶, d̶d̶x̶, dftd3,
                d̶f̶t̶d̶4̶, dkh, ecpint, einsums, f̶o̶r̶t̶e̶, gauxc, g̶c̶p̶, g̶d̶m̶a̶,
                g̶e̶o̶m̶e̶t̶r̶i̶c̶, g̶p̶u̶_̶d̶f̶c̶c̶, i̶n̶t̶e̶g̶r̶a̶t̶o̶r̶x̶x̶, i̶p̶i̶,
                l̶i̶b̶e̶f̶p̶, m̶d̶i̶, m̶p̶2̶d̶, m̶r̶c̶c̶, ooo, o̶p̶e̶n̶f̶e̶r̶m̶i̶o̶n̶p̶s̶i̶4̶,
                pcmsolver, p̶s̶i̶4̶f̶o̶c̶k̶c̶i̶, p̶s̶i̶x̶a̶s̶, p̶y̶e̶i̶n̶s̶u̶m̶s̶, r̶e̶s̶p̶,
                s̶i̶m̶i̶n̶t̶, s̶n̶s̶m̶p̶2̶, v̶2̶r̶d̶m̶_̶c̶a̶s̶s̶c̶f̶

  ==> Input File <==

--------------------------------------------------------------------------
memory 3 GB
molecule mol {
0 1
S -1.45620588261638 1.45620588261638 -0.36909387031535
O -1.87655139252152 0.00000000000000 0.36909387031535
S -1.45620588261638 -1.45620588261638 -0.36909387031535
O 0.00000000000000 -1.87655139252152 0.36909387031535
S 1.45620588261638 -1.45620588261638 -0.36909387031535
O 1.87655139252152 0.00000000000000 0.36909387031535
S 1.45620588261638 1.45620588261638 -0.36909387031535
O 0.00000000000000 1.87655139252152 0.36909387031535
units angstrom
no_reorient
no_com
}
set basis def2-TZVP
set scf_type df
set freeze_core true
set e_convergence 8
energy('b3lyp-d3bj')
--------------------------------------------------------------------------

  Memory set to   2.794 GiB by Python driver.

Scratch directory: /Users/hoyoun/Documents/Yonsei_AX_Camp/(진짜_이게_최종)/calibration/dft_work/_scratch/S4O4_1/
   => Libint2 <=

    Primary   basis highest AM E, G, H:  7, 6, 3
    Auxiliary basis highest AM E, G, H:  7, 7, 4
    Onebody   basis highest AM E, G, H:  -, -, -
    Solid Harmonics ordering:            Gaussian

*** tstart() called on choehoyun-ui-MacBookAir.local
*** at Sun Aug  9 12:54:06 2026

   => Loading Basis Set <=

    Name: DEF2-TZVP
    Role: ORBITAL
    Keyword: BASIS
    atoms 1, 3, 5, 7 entry S          line   492 file /Users/hoyoun/micromamba/envs/psi4env/share/psi4/basis/def2-tzvp.gbs 
    atoms 2, 4, 6, 8 entry O          line   189 file /Users/hoyoun/micromamba/envs/psi4env/share/psi4/basis/def2-tzvp.gbs 

   => B3LYP-D3(BJ): Empirical Dispersion <=

    Grimme's -D3 (BJ-damping) Dispersion Correction
    Grimme S.; Ehrlich S.; Goerigk L. (2011), J. Comput. Chem., 32: 1456

        s6 =       1.000000
        s8 =       1.988900
        a1 =       0.398100
        a2 =       4.421100


         ---------------------------------------------------------
                                   SCF
               by Justin Turney, Rob Parrish, Andy Simmonett
                          and Daniel G. A. Smith
                              RKS Reference
                        8 Threads,   2861 MiB Core
         ---------------------------------------------------------

  ==> Geometry <==

    Molecular point group: c2v
    Full point group: C4v

    Geometry (in Angstrom), charge = 0, multiplicity = 1:

       Center              X                  Y                   Z               Mass       
    ------------   -----------------  -----------------  -----------------  -----------------
         S           -1.456205882616     1.456205882616    -0.369093870315    31.972071174400
         O           -1.876551392522    -0.000000000000     0.369093870315    15.994914619570
         S           -1.456205882616    -1.456205882616    -0.369093870315    31.972071174400
         O            0.000000000000    -1.876551392522     0.369093870315    15.994914619570
         S            1.456205882616    -1.456205882616    -0.369093870315    31.972071174400
         O            1.876551392522     0.000000000000     0.369093870315    15.994914619570
         S            1.456205882616     1.456205882616    -0.369093870315    31.972071174400
         O           -0.000000000000     1.876551392522     0.369093870315    15.994914619570

  Running in c2v symmetry.

  Rotational constants: A =      0.04112  B =      0.04112  C =      0.02196 [cm^-1]
  Rotational constants: A =   1232.69093  B =   1232.69093  C =    658.31631 [MHz]
  Nuclear repulsion =  788.370027439827027

  Charge       = 0
  Multiplicity = 1
  Electrons    = 96
  Nalpha       = 48
  Nbeta        = 48

  ==> Algorithm <==

  SCF Algorithm Type is DF.
  DIIS enabled.
  MOM disabled.
  Fractional occupation disabled.
  Guess Type is SAD.
  Energy threshold   = 1.00e-08
  Density threshold  = 1.00e-06
  Integral threshold = 1.00e-12

  ==> Primary Basis <==

  Basis Set: DEF2-TZVP
    Blend: DEF2-TZVP
    Number of shells: 96
    Number of basis functions: 272
    Number of Cartesian functions: 312
    Spherical Harmonics?: true
    Max angular momentum: 3

  ==> DFT Potential <==

   => LibXC <=

    Version 7.1.2
    S. Lehtola, C. Steigemann, M. J. T. Oliveira, and M. A. L. Marques,  SoftwareX 7, 1–5 (2018) (10.1016/j.softx.2017.11.002)

   => Composite Functional: B3LYP-D3BJ2B <= 

    B3LYP-d3bj2b Hyb-GGA Exchange-Correlation Functional

    P. J. Stephens, F. J. Devlin, C. F. Chabalowski, and M. J. Frisch,  J. Phys. Chem. 98, 11623 (1994) (10.1021/j100096a001)

    Deriv               =              1
    GGA                 =           TRUE
    Meta                =          FALSE

    Exchange Hybrid     =           TRUE
    MP2 Hybrid          =          FALSE

   => Exchange Functionals <=

    0.0800   Slater exchange
    0.7200         Becke 88

   => Exact (HF) Exchange <=

    0.2000               HF 

   => Correlation Functionals <=

    0.1900   Vosko, Wilk & Nusair (VWN5_RPA)
    0.8100   Lee, Yang & Parr

   => LibXC Density Thresholds  <==

    XC_HYB_GGA_XC_B3LYP:  1.00E-15 

   => Molecular Quadrature <=

    Radial Scheme          =       TREUTLER
    Pruning Scheme         =           NONE
    Nuclear Scheme         =       TREUTLER

    Blocking Scheme        =         OCTREE
    BS radius alpha        =              1
    Pruning alpha          =              1
    Radial Points          =             75
    Spherical Points       =            302
    Total Points           =         166756
    Total Blocks           =           1306
    Max Points             =            256
    Max Functions          =            247
    Weights Tolerance      =       1.00E-15

   => Loading Basis Set <=

    Name: (DEF2-TZVP AUX)
    Role: JKFIT
    Keyword: DF_BASIS_SCF
    atoms 1, 3, 5, 7 entry S          line   903 file /Users/hoyoun/micromamba/envs/psi4env/share/psi4/basis/def2-universal-jkfit.gbs 
    atoms 2, 4, 6, 8 entry O          line   318 file /Users/hoyoun/micromamba/envs/psi4env/share/psi4/basis/def2-universal-jkfit.gbs 

  ==> Integral Setup <==

  DFHelper Memory: AOs need 0.437 GiB; user supplied 1.267 GiB. 
  SCF_SUBTYPE=INCORE selected. In-core MEM_DF algorithm will be used.
  Using in-core AOs.

  ==> MemDFJK: Density-Fitted J/K Matrices <==

    J tasked:                   Yes
    K tasked:                   Yes
    wK tasked:                   No
    OpenMP threads:               8
    Memory [MiB]:              1297
    Algorithm:                 Core
    Schwarz Cutoff:           1E-12
    Mask sparsity (%):       8.6992
    Fitting Condition:        1E-10

   => Auxiliary Basis Set <=

  Basis Set: (DEF2-TZVP AUX)
    Blend: DEF2-UNIVERSAL-JKFIT
    Number of shells: 252
    Number of basis functions: 820
    Number of Cartesian functions: 992
    Spherical Harmonics?: true
    Max angular momentum: 4

  Cached 100.0% of DFT collocation blocks in 0.829 [GiB].

  Minimum eigenvalue in the overlap matrix is 2.9385404654E-03.
  Reciprocal condition number of the overlap matrix is 6.3083511988E-04.
    Using symmetric orthogonalization.

  ==> Pre-Iterations <==

  SCF Guess: Superposition of Atomic Densities via on-the-fly atomic UHF (no occupation information).

   -------------------------
    Irrep   Nso     Nmo    
   -------------------------
     A1        79      79 
     A2        57      57 
     B1        68      68 
     B2        68      68 
   -------------------------
    Total     272     272
   -------------------------

  ==> Iterations <==

                           Total Energy        Delta E     RMS |[F,P]|

   @DF-RKS iter SAD: -1893.39579145908874   -1.89340e+03   0.00000e+00 
   @DF-RKS iter   1: -1893.50227089740588   -1.06479e-01   7.32025e-03 ADIIS/DIIS
   @DF-RKS iter   2: -1892.70250798983784    7.99763e-01   1.23192e-02 ADIIS/DIIS
   @DF-RKS iter   3: -1893.75219077905945   -1.04968e+00   2.08239e-03 ADIIS/DIIS
   @DF-RKS iter   4: -1893.77948513694264   -2.72944e-02   1.67008e-04 ADIIS/DIIS
   @DF-RKS iter   5: -1893.77967018477716   -1.85048e-04   6.30952e-05 DIIS
   @DF-RKS iter   6: -1893.77970152039666   -3.13356e-05   1.32171e-05 DIIS
   @DF-RKS iter   7: -1893.77970298103060   -1.46063e-06   2.87841e-06 DIIS
   @DF-RKS iter   8: -1893.77970306101429   -7.99837e-08   7.45467e-07 DIIS
   @DF-RKS iter   9: -1893.77970306706152   -6.04723e-09   1.52086e-07 DIIS
  Energy and wave function converged.


  ==> Post-Iterations <==

   Electrons on quadrature grid:
      Ntotal   =   96.0001256603 ; deviation = 1.257e-04 

    Orbital Energies [Eh]
    ---------------------

    Doubly Occupied:                                                      

       1A2   -88.962544     1B2   -88.962539     1B1   -88.962539  
       1A1   -88.962533     2A1   -19.225657     2B2   -19.225646  
       2B1   -19.225646     3A1   -19.225628     2A2    -8.029556  
       3B2    -8.029544     3B1    -8.029544     4A1    -8.029526  
       3A2    -5.995476     5A1    -5.995472     4B2    -5.995472  
       4B1    -5.995472     5B2    -5.991759     5B1    -5.991759  
       4A2    -5.991755     6A1    -5.991754     5A2    -5.979900  
       6B1    -5.979897     6B2    -5.979897     7A1    -5.979894  
       8A1    -1.119359     7B2    -1.087098     7B1    -1.087098  
       9A1    -1.045466     6A2    -0.808939     8B1    -0.727604  
       8B2    -0.727604    10A1    -0.624920     7A2    -0.566376  
       9B2    -0.520248     9B1    -0.520248    11A1    -0.499102  
      10B2    -0.451386    10B1    -0.451386    12A1    -0.448491  
       8A2    -0.431893    13A1    -0.419679    14A1    -0.379664  
      11B2    -0.367947    11B1    -0.367947    15A1    -0.272264  
       9A2    -0.265256    12B2    -0.259596    12B1    -0.259596  

    Virtual:                                                              

      13B2    -0.083895    13B1    -0.083895    16A1    -0.069758  
      17A1    -0.057500    10A2    -0.015860    14B1    -0.000430  
      14B2    -0.000430    11A2     0.026055    18A1     0.192932  
      15B2     0.198400    15B1     0.198400    12A2     0.205812  
      19A1     0.222928    20A1     0.224600    16B2     0.246709  
      16B1     0.246709    17B1     0.264614    17B2     0.264614  
      13A2     0.269312    14A2     0.282227    21A1     0.286237  
      18B2     0.289885    18B1     0.289885    22A1     0.296235  
      23A1     0.300485    15A2     0.303285    24A1     0.310207  
      19B2     0.338549    19B1     0.338549    16A2     0.398944  
      20B2     0.409928    20B1     0.409928    25A1     0.422950  
      26A1     0.432076    21B2     0.463054    21B1     0.463054  
      17A2     0.463086    22B2     0.476221    22B1     0.476221  
      27A1     0.490809    18A2     0.541871    28A1     0.565467  
      23B2     0.583097    23B1     0.583097    29A1     0.627611  
      24B2     0.632973    24B1     0.632973    30A1     0.649281  
      19A2     0.688742    25B2     0.690531    25B1     0.690531  
      20A2     0.694985    21A2     0.730174    26B2     0.743371  
      26B1     0.743371    31A1     0.776275    27B2     0.866782  
      27B1     0.866782    32A1     0.929283    22A2     0.932170  
      28B2     1.229581    28B1     1.229581    33A1     1.231299  
      34A1     1.237280    23A2     1.271237    29B2     1.321550  
      29B1     1.321550    35A1     1.332075    36A1     1.351191  
      30B2     1.375977    30B1     1.375977    24A2     1.385297  
      25A2     1.416674    37A1     1.417071    38A1     1.428450  
      31B2     1.432198    31B1     1.432198    32B2     1.460085  
      32B1     1.460085    39A1     1.474287    33B1     1.477416  
      33B2     1.477416    26A2     1.491470    27A2     1.510830  
      34B2     1.517968    34B1     1.517968    40A1     1.522876  
      28A2     1.528265    41A1     1.533881    35B2     1.561540  
      35B1     1.561540    29A2     1.570869    42A1     1.614477  
      36B2     1.650871    36B1     1.650871    43A1     1.674589  
      37B2     1.676755    37B1     1.676755    30A2     1.708581  
      44A1     1.728816    31A2     1.739370    32A2     1.740152  
      38B2     1.748668    38B1     1.748668    45A1     1.774001  
      33A2     1.778692    39B2     1.781250    39B1     1.781250  
      46A1     1.864275    40B2     1.887400    40B1     1.887400  
      34A2     1.902208    35A2     1.972854    41B2     1.990131  
      41B1     1.990131    47A1     2.000040    48A1     2.017870  
      42B2     2.083863    42B1     2.083863    49A1     2.108689  
      36A2     2.126451    43B1     2.189405    43B2     2.189405  
      50A1     2.195193    37A2     2.196967    44B2     2.246647  
      44B1     2.246647    51A1     2.249275    38A2     2.280703  
      39A2     2.287395    45B1     2.342868    45B2     2.342868  
      46B1     2.379119    46B2     2.379119    52A1     2.438940  
      40A2     2.462312    41A2     2.496997    47B2     2.533024  
      47B1     2.533024    53A1     2.562805    54A1     2.752448  
      55A1     2.759841    48B2     2.774737    48B1     2.774737  
      56A1     2.789602    49B2     2.871220    49B1     2.871220  
      57A1     2.979050    58A1     3.219532    50B2     3.454186  
      50B1     3.454186    42A2     3.626327    59A1     3.671138  
      51B1     3.762325    51B2     3.762325    43A2     3.787911  
      60A1     5.049684    52B2     5.063396    52B1     5.063396  
      61A1     5.072783    62A1     5.076101    53B2     5.077333  
      53B1     5.077333    44A2     5.087104    45A2     5.093128  
      63A1     5.107298    54B1     5.115504    54B2     5.115504  
      55B1     5.211268    55B2     5.211268    64A1     5.236242  
      46A2     5.268858    65A1     5.273262    56B2     5.309995  
      56B1     5.309995    47A2     5.330077    66A1     5.335483  
      67A1     5.344955    48A2     5.364413    57B2     5.370275  
      57B1     5.370275    58B1     5.411691    58B2     5.411691  
      49A2     5.467713    68A1     6.307506    69A1     6.339214  
      59B2     6.349302    59B1     6.349302    60B2     6.405014  
      60B1     6.405014    70A1     6.415684    50A2     6.423070  
      71A1     6.429686    61B1     6.564355    61B2     6.564355  
      51A2     6.661244    72A1     6.706131    62B1     6.744386  
      62B2     6.744386    52A2     6.772885    63B2     6.788700  
      63B1     6.788700    53A2     6.806834    73A1     6.834231  
      74A1     8.730619    64B2     8.765208    64B1     8.765208  
      54A2     8.784090    75A1     8.933692    55A2     8.943627  
      65B2     8.983920    65B1     8.983920    66B2     9.106684  
      66B1     9.106684    56A2     9.132608    76A1     9.141398  
      77A1    18.600480    67B2    18.908738    67B1    18.908738  
      57A2    19.182558    78A1    43.153337    68B2    43.396857  
      68B1    43.396857    79A1    43.554781  

    Final Occupation by Irrep:
             A1    A2    B1    B2 
    DOCC [    15,    9,   12,   12 ]
    NA   [    15,    9,   12,   12 ]
    NB   [    15,    9,   12,   12 ]

  @DF-RKS Final Energy: -1893.77970306706152

   => Energetics <=

    Nuclear Repulsion Energy =            788.3700274398270267
    One-Electron Energy =               -4184.5365208937582793
    Two-Electron Energy =                1612.9947470949364288
    DFT Exchange-Correlation Energy =    -110.5849812608594220
    Empirical Dispersion Energy =          -0.0229754472071895
    VV10 Nonlocal Energy =                  0.0000000000000000
    Total Energy =                      -1893.7797030670615186

Computation Completed


Properties will be evaluated at   0.000000,   0.000000,   0.000000 [a0]

Properties computed using the SCF density matrix


 Multipole Moments:

 ------------------------------------------------------------------------------------
     Multipole            Electronic (a.u.)      Nuclear  (a.u.)        Total (a.u.)
 ------------------------------------------------------------------------------------

 L = 1.  Multiply by 2.5417464519 to convert [e a0] to [Debye]
 Dipole X            :          0.0000000           -0.0000000           -0.0000000
 Dipole Y            :          0.0000000            0.0000000            0.0000000
 Dipole Z            :         21.3707511          -22.3195625           -0.9488115
 Magnitude           :                                                    0.9488115

 ------------------------------------------------------------------------------------

*** tstop() called on choehoyun-ui-MacBookAir.local at Sun Aug  9 12:54:09 2026
Module time:
	user time   =      20.75 seconds =       0.35 minutes
	system time =       0.47 seconds =       0.01 minutes
	total time  =          3 seconds =       0.05 minutes
Total time:
	user time   =      20.75 seconds =       0.35 minutes
	system time =       0.47 seconds =       0.01 minutes
	total time  =          3 seconds =       0.05 minutes

    Psi4 stopped on: Sunday, 09 August 2026 12:54PM
    Psi4 wall time for execution: 0:00:03.69

*** Psi4 exiting successfully. Buy a developer a beer!
