
    -----------------------------------------------------------------------
          Psi4: An Open-Source Ab Initio Electronic Structure Package
                               Psi4 1.11 release

                         Git: Rev {} zzzzzzz 


    D. G. A. Smith, L. A. Burns, A. C. Simmonett, R. M. Parrish,
    M. C. Schieber, R. Galvelis, P. Kraus, H. Kruse, R. Di Remigio,
    A. Alenaizan, A. M. James, S. Lehtola, J. P. Misiewicz, M. Scheurer,
    R. A. Shaw, J. B. Schriber, Y. Xie, Z. L. Glick, D. A. Sirianni,
    J. S. O'Brien, J. M. Waldrop, A. Kumar, E. G. Hohenstein,
    B. P. Pritchard, B. R. Brooks, H. F. Schaefer III, A. Yu. Sokolov,
    K. Patkowski, A. E. DePrince III, U. Bozkaya, R. A. King,
    F. A. Evangelista, J. M. Turney, T. D. Crawford, C. D. Sherrill,
    J. Chem. Phys. 152(18) 184108 (2020). https://doi.org/10.1063/5.0006002

                            Additional Code Authors
    E. T. Seidl, C. L. Janssen, E. F. Valeev, M. L. Leininger,
    J. F. Gonthier, R. M. Richard, H. R. McAlexander, M. Saitow, X. Wang,
    P. Verma, M. H. Lechner, A. Jiang, S. Behnle, A. G. Heide,
    M. F. Herbst, D. L. Poole, T. Győri, E. C. Mitchell, J. P. Pederson,
    and A. M. Wallace

             Previous Authors, Complete List of Code Contributors,
                       and Citations for Specific Modules
    https://github.com/psi4/psi4/blob/master/codemeta.json
    https://github.com/psi4/psi4/graphs/contributors
    https://psicode.org/psi4manual/master/introduction.html#citing-psifour

    -----------------------------------------------------------------------


    Psi4 started on: Sunday, 09 August 2026 01:20AM

    Process ID: 41829
    Host:       choehoyun-ui-MacBookAir.local
    PSIDATADIR: /Users/hoyoun/micromamba/envs/psi4env/share/psi4
    Memory:     500.0 MiB
    Threads:    1
    Addons:     a̶d̶c̶c̶, a̶m̶b̶i̶t̶, b̶s̶e̶, c̶c̶t̶3̶, c̶f̶o̶u̶r̶, c̶h̶e̶m̶p̶s̶2̶, c̶p̶p̶e̶, d̶d̶x̶, dftd3,
                d̶f̶t̶d̶4̶, dkh, ecpint, einsums, f̶o̶r̶t̶e̶, gauxc, g̶c̶p̶, g̶d̶m̶a̶,
                g̶e̶o̶m̶e̶t̶r̶i̶c̶, g̶p̶u̶_̶d̶f̶c̶c̶, i̶n̶t̶e̶g̶r̶a̶t̶o̶r̶x̶x̶, i̶p̶i̶,
                l̶i̶b̶e̶f̶p̶, m̶d̶i̶, m̶p̶2̶d̶, m̶r̶c̶c̶, ooo, o̶p̶e̶n̶f̶e̶r̶m̶i̶o̶n̶p̶s̶i̶4̶,
                pcmsolver, p̶s̶i̶4̶f̶o̶c̶k̶c̶i̶, p̶s̶i̶x̶a̶s̶, p̶y̶e̶i̶n̶s̶u̶m̶s̶, r̶e̶s̶p̶,
                s̶i̶m̶i̶n̶t̶, s̶n̶s̶m̶p̶2̶, v̶2̶r̶d̶m̶_̶c̶a̶s̶s̶c̶f̶

  ==> Input File <==

--------------------------------------------------------------------------
memory 6 GB
molecule mol {
0 1
C 1.24201071085759 0.66554725998878 -0.58120802016049
C 1.24201071085759 -0.66554725998878 -0.58120802016049
C 0.00000000000000 -1.12164890382831 0.21150049287516
C -1.24201071085759 -0.66554725998878 -0.58120802016049
C -1.24201071085759 0.66554725998878 -0.58120802016049
C 0.00000000000000 1.12164890382831 0.21150049287516
C 0.00000000000000 0.00000000000000 1.29565543814018
H 1.93016660207356 1.33333695925463 -1.08006053855549
H 1.93016660207356 -1.33333695925463 -1.08006053855549
H 0.00000000000000 -2.15619172848030 0.54783284812642
H -1.93016660207356 -1.33333695925463 -1.08006053855549
H -1.93016660207356 1.33333695925463 -1.08006053855549
H 0.00000000000000 2.15619172848030 0.54783284812642
H 0.89792376053519 0.00000000000000 1.91537605736029
H -0.89792376053519 0.00000000000000 1.91537605736029
units angstrom
no_reorient
no_com
}
set basis def2-TZVP
set scf_type df
set freeze_core true
energy('b3lyp-d3bj')
--------------------------------------------------------------------------

  Memory set to   5.588 GiB by Python driver.

Scratch directory: /tmp/
   => Libint2 <=

    Primary   basis highest AM E, G, H:  7, 6, 3
    Auxiliary basis highest AM E, G, H:  7, 7, 4
    Onebody   basis highest AM E, G, H:  -, -, -
    Solid Harmonics ordering:            Gaussian

*** tstart() called on choehoyun-ui-MacBookAir.local
*** at Sun Aug  9 01:20:53 2026

   => Loading Basis Set <=

    Name: DEF2-TZVP
    Role: ORBITAL
    Keyword: BASIS
    atoms 1-7  entry C          line   123 file /Users/hoyoun/micromamba/envs/psi4env/share/psi4/basis/def2-tzvp.gbs 
    atoms 8-15 entry H          line    15 file /Users/hoyoun/micromamba/envs/psi4env/share/psi4/basis/def2-tzvp.gbs 

   => B3LYP-D3(BJ): Empirical Dispersion <=

    Grimme's -D3 (BJ-damping) Dispersion Correction
    Grimme S.; Ehrlich S.; Goerigk L. (2011), J. Comput. Chem., 32: 1456

        s6 =       1.000000
        s8 =       1.988900
        a1 =       0.398100
        a2 =       4.421100


         ---------------------------------------------------------
                                   SCF
               by Justin Turney, Rob Parrish, Andy Simmonett
                          and Daniel G. A. Smith
                              RKS Reference
                        1 Threads,   5722 MiB Core
         ---------------------------------------------------------

  ==> Geometry <==

    Molecular point group: c2v
    Full point group: C2v

    Geometry (in Angstrom), charge = 0, multiplicity = 1:

       Center              X                  Y                   Z               Mass       
    ------------   -----------------  -----------------  -----------------  -----------------
         C            1.242010710858     0.665547259989    -0.581208020160    12.000000000000
         C            1.242010710858    -0.665547259989    -0.581208020160    12.000000000000
         C            0.000000000000    -1.121648903828     0.211500492875    12.000000000000
         C           -1.242010710858    -0.665547259989    -0.581208020160    12.000000000000
         C           -1.242010710858     0.665547259989    -0.581208020160    12.000000000000
         C           -0.000000000000     1.121648903828     0.211500492875    12.000000000000
         C            0.000000000000     0.000000000000     1.295655438140    12.000000000000
         H            1.930166602074     1.333336959255    -1.080060538555     1.007825032230
         H            1.930166602074    -1.333336959255    -1.080060538555     1.007825032230
         H            0.000000000000    -2.156191728480     0.547832848126     1.007825032230
         H           -1.930166602074    -1.333336959255    -1.080060538555     1.007825032230
         H           -1.930166602074     1.333336959255    -1.080060538555     1.007825032230
         H           -0.000000000000     2.156191728480     0.547832848126     1.007825032230
         H            0.897923760535     0.000000000000     1.915376057360     1.007825032230
         H           -0.897923760535    -0.000000000000     1.915376057360     1.007825032230

  Running in c2v symmetry.

  Rotational constants: A =      0.14271  B =      0.11971  C =      0.10624 [cm^-1]
  Rotational constants: A =   4278.19415  B =   3588.74334  C =   3184.84951 [MHz]
  Nuclear repulsion =  287.742117730502002

  Charge       = 0
  Multiplicity = 1
  Electrons    = 50
  Nalpha       = 25
  Nbeta        = 25

  ==> Algorithm <==

  SCF Algorithm Type is DF.
  DIIS enabled.
  MOM disabled.
  Fractional occupation disabled.
  Guess Type is SAD.
  Energy threshold   = 1.00e-06
  Density threshold  = 1.00e-06
  Integral threshold = 1.00e-12

  ==> Primary Basis <==

  Basis Set: DEF2-TZVP
    Blend: DEF2-TZVP
    Number of shells: 109
    Number of basis functions: 265
    Number of Cartesian functions: 300
    Spherical Harmonics?: true
    Max angular momentum: 3

  ==> DFT Potential <==

   => LibXC <=

    Version 7.1.2
    S. Lehtola, C. Steigemann, M. J. T. Oliveira, and M. A. L. Marques,  SoftwareX 7, 1–5 (2018) (10.1016/j.softx.2017.11.002)

   => Composite Functional: B3LYP-D3BJ2B <= 

    B3LYP-d3bj2b Hyb-GGA Exchange-Correlation Functional

    P. J. Stephens, F. J. Devlin, C. F. Chabalowski, and M. J. Frisch,  J. Phys. Chem. 98, 11623 (1994) (10.1021/j100096a001)

    Deriv               =              1
    GGA                 =           TRUE
    Meta                =          FALSE

    Exchange Hybrid     =           TRUE
    MP2 Hybrid          =          FALSE

   => Exchange Functionals <=

    0.0800   Slater exchange
    0.7200         Becke 88

   => Exact (HF) Exchange <=

    0.2000               HF 

   => Correlation Functionals <=

    0.1900   Vosko, Wilk & Nusair (VWN5_RPA)
    0.8100   Lee, Yang & Parr

   => LibXC Density Thresholds  <==

    XC_HYB_GGA_XC_B3LYP:  1.00E-15 

   => Molecular Quadrature <=

    Radial Scheme          =       TREUTLER
    Pruning Scheme         =           NONE
    Nuclear Scheme         =       TREUTLER

    Blocking Scheme        =         OCTREE
    BS radius alpha        =              1
    Pruning alpha          =              1
    Radial Points          =             75
    Spherical Points       =            302
    Total Points           =         315291
    Total Blocks           =           2397
    Max Points             =            256
    Max Functions          =            260
    Weights Tolerance      =       1.00E-15

   => Loading Basis Set <=

    Name: (DEF2-TZVP AUX)
    Role: JKFIT
    Keyword: DF_BASIS_SCF
    atoms 1-7  entry C          line   198 file /Users/hoyoun/micromamba/envs/psi4env/share/psi4/basis/def2-universal-jkfit.gbs 
    atoms 8-15 entry H          line    18 file /Users/hoyoun/micromamba/envs/psi4env/share/psi4/basis/def2-universal-jkfit.gbs 

  ==> Integral Setup <==

  DFHelper Memory: AOs need 0.365 GiB; user supplied 2.219 GiB. 
  SCF_SUBTYPE=INCORE selected. In-core MEM_DF algorithm will be used.
  Using in-core AOs.

  ==> MemDFJK: Density-Fitted J/K Matrices <==

    J tasked:                   Yes
    K tasked:                   Yes
    wK tasked:                   No
    OpenMP threads:               1
    Memory [MiB]:              2272
    Algorithm:                 Core
    Schwarz Cutoff:           1E-12
    Mask sparsity (%):       0.7974
    Fitting Condition:        1E-10

   => Auxiliary Basis Set <=

  Basis Set: (DEF2-TZVP AUX)
    Blend: DEF2-UNIVERSAL-JKFIT
    Number of shells: 223
    Number of basis functions: 669
    Number of Cartesian functions: 783
    Spherical Harmonics?: true
    Max angular momentum: 4

  Cached 100.0% of DFT collocation blocks in 1.972 [GiB].

  Minimum eigenvalue in the overlap matrix is 5.0148891418E-05.
  Reciprocal condition number of the overlap matrix is 5.3353811191E-06.
    Using symmetric orthogonalization.

  ==> Pre-Iterations <==

  SCF Guess: Superposition of Atomic Densities via on-the-fly atomic UHF (no occupation information).

   -------------------------
    Irrep   Nso     Nmo    
   -------------------------
     A1        82      82 
     A2        52      52 
     B1        60      60 
     B2        71      71 
   -------------------------
    Total     265     265
   -------------------------

  ==> Iterations <==

                           Total Energy        Delta E     RMS |[F,P]|

   @DF-RKS iter SAD:  -271.36899644401234   -2.71369e+02   0.00000e+00 
   @DF-RKS iter   1:  -270.91179759190527    4.57199e-01   8.50373e-03 ADIIS/DIIS
   @DF-RKS iter   2:  -269.77128370112894    1.14051e+00   1.40466e-02 ADIIS/DIIS
   @DF-RKS iter   3:  -271.59875388829215   -1.82747e+00   8.37610e-04 ADIIS/DIIS
   @DF-RKS iter   4:  -271.60130949949684   -2.55561e-03   5.65260e-04 ADIIS/DIIS
   @DF-RKS iter   5:  -271.60378665079423   -2.47715e-03   1.28490e-04 ADIIS/DIIS
   @DF-RKS iter   6:  -271.60391924940166   -1.32599e-04   1.25131e-05 DIIS
   @DF-RKS iter   7:  -271.60392070190539   -1.45250e-06   3.19671e-06 DIIS
   @DF-RKS iter   8:  -271.60392078136630   -7.94609e-08   1.14257e-06 DIIS
   @DF-RKS iter   9:  -271.60392079138921   -1.00229e-08   4.04293e-07 DIIS
  Energy and wave function converged.


  ==> Post-Iterations <==

   Electrons on quadrature grid:
      Ntotal   =   49.9997415153 ; deviation = -2.585e-04 

    Orbital Energies [Eh]
    ---------------------

    Doubly Occupied:                                                      

       1B2   -10.184983     1A1   -10.184962     2A1   -10.173223  
       1B1   -10.166463     3A1   -10.166457     1A2   -10.165566  
       2B2   -10.165556     4A1    -0.888616     2B1    -0.749095  
       3B2    -0.707547     5A1    -0.694602     6A1    -0.566162  
       2A2    -0.558699     7A1    -0.524031     4B2    -0.503134  
       3B1    -0.481438     4B1    -0.419396     8A1    -0.389041  
       9A1    -0.372672     5B2    -0.369789     5B1    -0.351809  
       6B2    -0.335972     3A2    -0.330847    10A1    -0.259816  
       6B1    -0.230141  

    Virtual:                                                              

       7B2    -0.019010     4A2     0.031942    11A1     0.048292  
       8B2     0.075994    12A1     0.081112     7B1     0.081858  
      13A1     0.101768     8B1     0.104623     9B2     0.106383  
       5A2     0.109383    14A1     0.127311    15A1     0.157337  
      10B2     0.165792     9B1     0.174149    16A1     0.204595  
      11B2     0.207140     6A2     0.209773    17A1     0.215960  
      10B1     0.224459    11B1     0.248134    12B2     0.257375  
       7A2     0.260823    18A1     0.284213    12B1     0.328283  
      13B2     0.329962     8A2     0.330563    19A1     0.353672  
      14B2     0.359805    13B1     0.371227    20A1     0.372830  
      15B2     0.375223    21A1     0.394082     9A2     0.394566  
      14B1     0.395498    16B2     0.417148    22A1     0.421408  
      17B2     0.430807    23A1     0.434996    15B1     0.447335  
      24A1     0.455401    16B1     0.467244    10A2     0.476282  
      18B2     0.510789    11A2     0.511334    25A1     0.539669  
      12A2     0.541930    19B2     0.583574    26A1     0.599752  
      13A2     0.604322    20B2     0.614236    27A1     0.668850  
      21B2     0.712020    28A1     0.725227    17B1     0.725515  
      22B2     0.760440    18B1     0.811851    29A1     0.832343  
      19B1     0.832921    23B2     0.867876    14A2     0.867990  
      30A1     0.897274    20B1     0.926217    31A1     0.945781  
      21B1     0.970226    32A1     1.001726    24B2     1.006715  
      15A2     1.007341    22B1     1.040459    16A2     1.056847  
      25B2     1.070063    23B1     1.101000    33A1     1.106261  
      17A2     1.142042    34A1     1.143447    26B2     1.146500  
      24B1     1.153684    35A1     1.155759    27B2     1.210172  
      36A1     1.229716    18A2     1.229928    28B2     1.261558  
      19A2     1.271775    37A1     1.287941    25B1     1.316480  
      20A2     1.320180    29B2     1.322277    30B2     1.375599  
      38A1     1.432644    21A2     1.440504    31B2     1.459848  
      26B1     1.478007    39A1     1.491482    27B1     1.547339  
      32B2     1.563690    22A2     1.574108    40A1     1.577192  
      28B1     1.609707    41A1     1.618315    33B2     1.621284  
      42A1     1.705822    29B1     1.717825    34B2     1.718293  
      23A2     1.799561    30B1     1.808662    43A1     1.841166  
      35B2     1.845749    31B1     1.895889    44A1     1.904738  
      36B2     1.944224    24A2     1.969936    37B2     1.987082  
      45A1     1.998960    46A1     2.047144    38B2     2.056895  
      32B1     2.058800    25A2     2.058815    33B1     2.120311  
      47A1     2.161755    26A2     2.212681    48A1     2.219914  
      49A1     2.257724    34B1     2.261559    39B2     2.286718  
      40B2     2.339341    35B1     2.348171    50A1     2.364854  
      27A2     2.390566    36B1     2.394001    51A1     2.439616  
      41B2     2.441213    28A2     2.443526    29A2     2.510900  
      37B1     2.514588    42B2     2.544568    38B1     2.564404  
      30A2     2.598085    43B2     2.600374    52A1     2.614481  
      53A1     2.623045    39B1     2.635773    54A1     2.667994  
      55A1     2.700256    31A2     2.714858    44B2     2.764225  
      45B2     2.771580    40B1     2.778023    41B1     2.794438  
      56A1     2.810794    32A2     2.853034    46B2     2.859931  
      42B1     2.875242    57A1     2.876055    58A1     2.882399  
      47B2     2.887164    33A2     2.929576    59A1     2.939781  
      43B1     2.941454    44B1     2.961260    48B2     2.992302  
      60A1     3.036327    45B1     3.075570    34A2     3.103099  
      49B2     3.106939    61A1     3.125130    35A2     3.150979  
      62A1     3.168007    50B2     3.188079    36A2     3.207844  
      51B2     3.229481    63A1     3.233940    52B2     3.277498  
      46B1     3.300675    37A2     3.300976    64A1     3.323040  
      47B1     3.324966    65A1     3.357247    38A2     3.358891  
      53B2     3.423179    66A1     3.432082    54B2     3.445780  
      67A1     3.481001    39A2     3.494013    48B1     3.505185  
      68A1     3.525777    49B1     3.529521    55B2     3.538176  
      50B1     3.554074    40A2     3.567500    56B2     3.635547  
      57B2     3.655451    51B1     3.737368    69A1     3.752346  
      41A2     3.771845    42A2     3.791162    70A1     3.833813  
      52B1     3.836633    58B2     3.864551    43A2     3.887125  
      59B2     3.946677    71A1     3.948293    72A1     4.022730  
      53B1     4.070128    44A2     4.117322    60B2     4.118299  
      73A1     4.147103    54B1     4.162049    61B2     4.176879  
      55B1     4.221363    45A2     4.250443    62B2     4.252061  
      46A2     4.327900    56B1     4.344143    74A1     4.349413  
      75A1     4.388696    57B1     4.428603    76A1     4.451148  
      58B1     4.462666    47A2     4.468085    63B2     4.491454  
      64B2     4.557364    48A2     4.643502    77A1     4.674766  
      65B2     4.722382    78A1     4.756714    59B1     4.773548  
      66B2     4.900889    79A1     4.952563    49A2     4.953165  
      67B2     5.009684    50A2     5.046979    68B2     5.071464  
      51A2     5.155426    69B2     5.184531    80A1    22.148841  
      60B1    22.174445    81A1    22.378001    82A1    22.462703  
      70B2    22.705280    71B2    22.779722    52A2    22.866807  

    Final Occupation by Irrep:
             A1    A2    B1    B2 
    DOCC [    10,    3,    6,    6 ]
    NA   [    10,    3,    6,    6 ]
    NB   [    10,    3,    6,    6 ]

  @DF-RKS Final Energy:  -271.60392079138921

   => Energetics <=

    Nuclear Repulsion Energy =            287.7421177305020024
    One-Electron Energy =                -934.8931258705899836
    Two-Electron Energy =                 408.7655112605497720
    DFT Exchange-Correlation Energy =     -33.1924918857286357
    Empirical Dispersion Energy =          -0.0259320261224223
    VV10 Nonlocal Energy =                  0.0000000000000000
    Total Energy =                       -271.6039207913892142

Computation Completed


Properties will be evaluated at   0.000000,   0.000000,   0.000000 [a0]

Properties computed using the SCF density matrix


 Multipole Moments:

 ------------------------------------------------------------------------------------
     Multipole            Electronic (a.u.)      Nuclear  (a.u.)        Total (a.u.)
 ------------------------------------------------------------------------------------

 L = 1.  Multiply by 2.5417464519 to convert [e a0] to [Debye]
 Dipole X            :          0.0000000           -0.0000000           -0.0000000
 Dipole Y            :          0.0000000            0.0000000            0.0000000
 Dipole Z            :          5.7526058           -5.7275299            0.0250760
 Magnitude           :                                                    0.0250760

 ------------------------------------------------------------------------------------

*** tstop() called on choehoyun-ui-MacBookAir.local at Sun Aug  9 01:22:48 2026
Module time:
	user time   =      39.55 seconds =       0.66 minutes
	system time =      10.51 seconds =       0.18 minutes
	total time  =        115 seconds =       1.92 minutes
Total time:
	user time   =      39.55 seconds =       0.66 minutes
	system time =      10.51 seconds =       0.18 minutes
	total time  =        115 seconds =       1.92 minutes

    Psi4 stopped on: Sunday, 09 August 2026 01:22AM
    Psi4 wall time for execution: 0:01:55.52

*** Psi4 exiting successfully. Buy a developer a beer!
