
    -----------------------------------------------------------------------
          Psi4: An Open-Source Ab Initio Electronic Structure Package
                               Psi4 1.11 release

                         Git: Rev {} zzzzzzz 


    D. G. A. Smith, L. A. Burns, A. C. Simmonett, R. M. Parrish,
    M. C. Schieber, R. Galvelis, P. Kraus, H. Kruse, R. Di Remigio,
    A. Alenaizan, A. M. James, S. Lehtola, J. P. Misiewicz, M. Scheurer,
    R. A. Shaw, J. B. Schriber, Y. Xie, Z. L. Glick, D. A. Sirianni,
    J. S. O'Brien, J. M. Waldrop, A. Kumar, E. G. Hohenstein,
    B. P. Pritchard, B. R. Brooks, H. F. Schaefer III, A. Yu. Sokolov,
    K. Patkowski, A. E. DePrince III, U. Bozkaya, R. A. King,
    F. A. Evangelista, J. M. Turney, T. D. Crawford, C. D. Sherrill,
    J. Chem. Phys. 152(18) 184108 (2020). https://doi.org/10.1063/5.0006002

                            Additional Code Authors
    E. T. Seidl, C. L. Janssen, E. F. Valeev, M. L. Leininger,
    J. F. Gonthier, R. M. Richard, H. R. McAlexander, M. Saitow, X. Wang,
    P. Verma, M. H. Lechner, A. Jiang, S. Behnle, A. G. Heide,
    M. F. Herbst, D. L. Poole, T. Győri, E. C. Mitchell, J. P. Pederson,
    and A. M. Wallace

             Previous Authors, Complete List of Code Contributors,
                       and Citations for Specific Modules
    https://github.com/psi4/psi4/blob/master/codemeta.json
    https://github.com/psi4/psi4/graphs/contributors
    https://psicode.org/psi4manual/master/introduction.html#citing-psifour

    -----------------------------------------------------------------------


    Psi4 started on: Monday, 10 August 2026 06:40PM

    Process ID: 76164
    Host:       choehoyun-ui-MacBookAir.local
    PSIDATADIR: /Users/hoyoun/micromamba/envs/psi4env/share/psi4
    Memory:     500.0 MiB
    Threads:    8
    Addons:     a̶d̶c̶c̶, a̶m̶b̶i̶t̶, b̶s̶e̶, c̶c̶t̶3̶, c̶f̶o̶u̶r̶, c̶h̶e̶m̶p̶s̶2̶, c̶p̶p̶e̶, d̶d̶x̶, dftd3,
                d̶f̶t̶d̶4̶, dkh, ecpint, einsums, f̶o̶r̶t̶e̶, gauxc, g̶c̶p̶, g̶d̶m̶a̶,
                g̶e̶o̶m̶e̶t̶r̶i̶c̶, g̶p̶u̶_̶d̶f̶c̶c̶, i̶n̶t̶e̶g̶r̶a̶t̶o̶r̶x̶x̶, i̶p̶i̶,
                l̶i̶b̶e̶f̶p̶, m̶d̶i̶, m̶p̶2̶d̶, m̶r̶c̶c̶, ooo, o̶p̶e̶n̶f̶e̶r̶m̶i̶o̶n̶p̶s̶i̶4̶,
                pcmsolver, p̶s̶i̶4̶f̶o̶c̶k̶c̶i̶, p̶s̶i̶x̶a̶s̶, p̶y̶e̶i̶n̶s̶u̶m̶s̶, r̶e̶s̶p̶,
                s̶i̶m̶i̶n̶t̶, s̶n̶s̶m̶p̶2̶, v̶2̶r̶d̶m̶_̶c̶a̶s̶s̶c̶f̶

  ==> Input File <==

--------------------------------------------------------------------------
memory 3 GB
molecule mol {
0 1
C -0.17104257817658 2.37095643646356 0.18902543866013
C 0.41810140867300 1.18055828557545 0.19742452501201
C 0.00000000000000 0.00000000000000 -0.64082245431704
C -0.41810140867300 -1.18055828557545 0.19742452501201
C 0.17104257817658 -2.37095643646356 0.18902543866013
H -1.02168318197243 2.58106871680244 -0.45160893549736
H 0.17595682458971 3.18115479028913 0.81920954772760
H 1.26514776928015 1.00944784710148 0.85796471521598
H 0.82855229667349 -0.30068568384786 -1.29160406395985
H -0.82855229667349 0.30068568384786 -1.29160406395985
H -1.26514776928015 -1.00944784710148 0.85796471521598
H 1.02168318197243 -2.58106871680244 -0.45160893549736
H -0.17595682458971 -3.18115479028913 0.81920954772760
units angstrom
no_reorient
no_com
}
set basis def2-SVP
set scf_type df
set freeze_core true
set e_convergence 8
energy('b3lyp-d3bj')
--------------------------------------------------------------------------

  Memory set to   2.794 GiB by Python driver.

Scratch directory: /Users/hoyoun/Documents/Yonsei_AX_Camp/(진짜_이게_최종)/calibration/dft_work/_scratch/P9/
   => Libint2 <=

    Primary   basis highest AM E, G, H:  7, 6, 3
    Auxiliary basis highest AM E, G, H:  7, 7, 4
    Onebody   basis highest AM E, G, H:  -, -, -
    Solid Harmonics ordering:            Gaussian

*** tstart() called on choehoyun-ui-MacBookAir.local
*** at Mon Aug 10 18:40:03 2026

   => Loading Basis Set <=

    Name: DEF2-SVP
    Role: ORBITAL
    Keyword: BASIS
    atoms 1-5  entry C          line    90 file /Users/hoyoun/micromamba/envs/psi4env/share/psi4/basis/def2-svp.gbs 
    atoms 6-13 entry H          line    15 file /Users/hoyoun/micromamba/envs/psi4env/share/psi4/basis/def2-svp.gbs 

   => B3LYP-D3(BJ): Empirical Dispersion <=

    Grimme's -D3 (BJ-damping) Dispersion Correction
    Grimme S.; Ehrlich S.; Goerigk L. (2011), J. Comput. Chem., 32: 1456

        s6 =       1.000000
        s8 =       1.988900
        a1 =       0.398100
        a2 =       4.421100


         ---------------------------------------------------------
                                   SCF
               by Justin Turney, Rob Parrish, Andy Simmonett
                          and Daniel G. A. Smith
                              RKS Reference
                        8 Threads,   2861 MiB Core
         ---------------------------------------------------------

  ==> Geometry <==

    Molecular point group: c2
    Full point group: C2

    Geometry (in Angstrom), charge = 0, multiplicity = 1:

       Center              X                  Y                   Z               Mass       
    ------------   -----------------  -----------------  -----------------  -----------------
         C           -0.171042578177     2.370956436464     0.189025438660    12.000000000000
         C            0.418101408673     1.180558285575     0.197424525012    12.000000000000
         C            0.000000000000     0.000000000000    -0.640822454317    12.000000000000
         C           -0.418101408673    -1.180558285575     0.197424525012    12.000000000000
         C            0.171042578177    -2.370956436464     0.189025438660    12.000000000000
         H           -1.021683181972     2.581068716802    -0.451608935497     1.007825032230
         H            0.175956824590     3.181154790289     0.819209547728     1.007825032230
         H            1.265147769280     1.009447847101     0.857964715216     1.007825032230
         H            0.828552296673    -0.300685683848    -1.291604063960     1.007825032230
         H           -0.828552296673     0.300685683848    -1.291604063960     1.007825032230
         H           -1.265147769280    -1.009447847101     0.857964715216     1.007825032230
         H            1.021683181972    -2.581068716802    -0.451608935497     1.007825032230
         H           -0.175956824590    -3.181154790289     0.819209547728     1.007825032230

  Running in c2 symmetry.

  Rotational constants: A =      0.67417  B =      0.07801  C =      0.07741 [cm^-1]
  Rotational constants: A =  20211.21461  B =   2338.63800  C =   2320.84252 [MHz]
  Nuclear repulsion =  155.287972805982832

  Charge       = 0
  Multiplicity = 1
  Electrons    = 38
  Nalpha       = 19
  Nbeta        = 19

  ==> Algorithm <==

  SCF Algorithm Type is DF.
  DIIS enabled.
  MOM disabled.
  Fractional occupation disabled.
  Guess Type is SAD.
  Energy threshold   = 1.00e-08
  Density threshold  = 1.00e-06
  Integral threshold = 1.00e-12

  ==> Primary Basis <==

  Basis Set: DEF2-SVP
    Blend: DEF2-SVP
    Number of shells: 54
    Number of basis functions: 110
    Number of Cartesian functions: 115
    Spherical Harmonics?: true
    Max angular momentum: 2

  ==> DFT Potential <==

   => LibXC <=

    Version 7.1.2
    S. Lehtola, C. Steigemann, M. J. T. Oliveira, and M. A. L. Marques,  SoftwareX 7, 1–5 (2018) (10.1016/j.softx.2017.11.002)

   => Composite Functional: B3LYP-D3BJ2B <= 

    B3LYP-d3bj2b Hyb-GGA Exchange-Correlation Functional

    P. J. Stephens, F. J. Devlin, C. F. Chabalowski, and M. J. Frisch,  J. Phys. Chem. 98, 11623 (1994) (10.1021/j100096a001)

    Deriv               =              1
    GGA                 =           TRUE
    Meta                =          FALSE

    Exchange Hybrid     =           TRUE
    MP2 Hybrid          =          FALSE

   => Exchange Functionals <=

    0.0800   Slater exchange
    0.7200         Becke 88

   => Exact (HF) Exchange <=

    0.2000               HF 

   => Correlation Functionals <=

    0.1900   Vosko, Wilk & Nusair (VWN5_RPA)
    0.8100   Lee, Yang & Parr

   => LibXC Density Thresholds  <==

    XC_HYB_GGA_XC_B3LYP:  1.00E-15 

   => Molecular Quadrature <=

    Radial Scheme          =       TREUTLER
    Pruning Scheme         =           NONE
    Nuclear Scheme         =       TREUTLER

    Blocking Scheme        =         OCTREE
    BS radius alpha        =              1
    Pruning alpha          =              1
    Radial Points          =             75
    Spherical Points       =            302
    Total Points           =         277813
    Total Blocks           =           2091
    Max Points             =            256
    Max Functions          =            109
    Weights Tolerance      =       1.00E-15

   => Loading Basis Set <=

    Name: (DEF2-SVP AUX)
    Role: JKFIT
    Keyword: DF_BASIS_SCF
    atoms 1-5  entry C          line   198 file /Users/hoyoun/micromamba/envs/psi4env/share/psi4/basis/def2-universal-jkfit.gbs 
    atoms 6-13 entry H          line    18 file /Users/hoyoun/micromamba/envs/psi4env/share/psi4/basis/def2-universal-jkfit.gbs 

  ==> Integral Setup <==

  DFHelper Memory: AOs need 0.050 GiB; user supplied 1.408 GiB. 
  SCF_SUBTYPE=INCORE selected. In-core MEM_DF algorithm will be used.
  Using in-core AOs.

  ==> MemDFJK: Density-Fitted J/K Matrices <==

    J tasked:                   Yes
    K tasked:                   Yes
    wK tasked:                   No
    OpenMP threads:               8
    Memory [MiB]:              1441
    Algorithm:                 Core
    Schwarz Cutoff:           1E-12
    Mask sparsity (%):       4.3471
    Fitting Condition:        1E-10

   => Auxiliary Basis Set <=

  Basis Set: (DEF2-SVP AUX)
    Blend: DEF2-UNIVERSAL-JKFIT
    Number of shells: 173
    Number of basis functions: 519
    Number of Cartesian functions: 605
    Spherical Harmonics?: true
    Max angular momentum: 4

  Cached 100.0% of DFT collocation blocks in 0.688 [GiB].

  Minimum eigenvalue in the overlap matrix is 2.1628264439E-03.
  Reciprocal condition number of the overlap matrix is 3.9038686118E-04.
    Using symmetric orthogonalization.

  ==> Pre-Iterations <==

  SCF Guess: Superposition of Atomic Densities via on-the-fly atomic UHF (no occupation information).

   -------------------------
    Irrep   Nso     Nmo    
   -------------------------
     A         56      56 
     B         54      54 
   -------------------------
    Total     110     110
   -------------------------

  ==> Iterations <==

                           Total Energy        Delta E     RMS |[F,P]|

   @DF-RKS iter SAD:  -194.44666437529861   -1.94447e+02   0.00000e+00 
   @DF-RKS iter   1:  -194.74652785971790   -2.99863e-01   1.07886e-02 ADIIS/DIIS
   @DF-RKS iter   2:  -194.67648474042568    7.00431e-02   1.18223e-02 ADIIS/DIIS
   @DF-RKS iter   3:  -195.16727990954325   -4.90795e-01   1.40407e-03 ADIIS/DIIS
   @DF-RKS iter   4:  -195.17082995933529   -3.55005e-03   9.47500e-04 ADIIS/DIIS
   @DF-RKS iter   5:  -195.17372985082704   -2.89989e-03   6.86789e-05 DIIS
   @DF-RKS iter   6:  -195.17374300234496   -1.31515e-05   1.83827e-05 DIIS
   @DF-RKS iter   7:  -195.17374390791446   -9.05569e-07   6.25766e-06 DIIS
   @DF-RKS iter   8:  -195.17374402279268   -1.14878e-07   6.79766e-07 DIIS
   @DF-RKS iter   9:  -195.17374402442718   -1.63450e-09   1.05210e-07 DIIS
  Energy and wave function converged.


  ==> Post-Iterations <==

   Electrons on quadrature grid:
      Ntotal   =   38.0000125687 ; deviation = 1.257e-05 

    Orbital Energies [Eh]
    ---------------------

    Doubly Occupied:                                                      

       1A    -10.192182     2A    -10.190683     1B    -10.190682  
       2B    -10.180875     3A    -10.180867     4A     -0.805158  
       3B     -0.751062     5A     -0.674397     4B     -0.564658  
       6A     -0.545574     5B     -0.486045     7A     -0.439945  
       8A     -0.432816     6B     -0.432691     7B     -0.365072  
       9A     -0.355860     8B     -0.350415    10A     -0.271015  
       9B     -0.259307  

    Virtual:                                                              

      11A     -0.004295    10B      0.031646    12A      0.076837  
      11B      0.089397    13A      0.098355    12B      0.100539  
      14A      0.126230    13B      0.152657    15A      0.159512  
      14B      0.160758    16A      0.236512    15B      0.269689  
      16B      0.346918    17A      0.349441    17B      0.399872  
      18A      0.410532    19A      0.434476    18B      0.440510  
      19B      0.452035    20A      0.490722    20B      0.513504  
      21A      0.521879    22A      0.543089    21B      0.568067  
      23A      0.585739    24A      0.626489    22B      0.645166  
      23B      0.651308    25A      0.652999    26A      0.676453  
      24B      0.679604    27A      0.679970    25B      0.687873  
      26B      0.701264    28A      0.713347    27B      0.790216  
      28B      0.831310    29A      0.856879    30A      0.936373  
      29B      1.055747    31A      1.097638    30B      1.119031  
      32A      1.151854    31B      1.217740    33A      1.229539  
      32B      1.271655    34A      1.291324    35A      1.441873  
      33B      1.547570    34B      1.609117    36A      1.626466  
      35B      1.649895    37A      1.665375    38A      1.673135  
      36B      1.695266    39A      1.712153    37B      1.749073  
      38B      1.794265    40A      1.811868    39B      1.823891  
      41A      1.824383    40B      1.847373    42A      1.895193  
      41B      1.915199    43A      1.959538    44A      2.017616  
      42B      2.029210    43B      2.058940    44B      2.140686  
      45A      2.145387    45B      2.215160    46A      2.228151  
      47A      2.286608    46B      2.349744    47B      2.373571  
      48A      2.400329    49A      2.434511    48B      2.466288  
      50A      2.510656    49B      2.625279    51A      2.649351  
      52A      2.738153    50B      2.752167    51B      2.813061  
      53A      2.835142    54A      2.854976    52B      2.978150  
      53B      3.061847    55A      3.097381    54B      3.280296  
      56A      3.329828  

    Final Occupation by Irrep:
              A     B 
    DOCC [    10,    9 ]
    NA   [    10,    9 ]
    NB   [    10,    9 ]

  @DF-RKS Final Energy:  -195.17374402442718

   => Energetics <=

    Nuclear Repulsion Energy =            155.2879728059828324
    One-Electron Energy =                -568.0730438754088709
    Two-Electron Energy =                 241.9335133274412613
    DFT Exchange-Correlation Energy =     -24.3066133920454419
    Empirical Dispersion Energy =          -0.0155728903969305
    VV10 Nonlocal Energy =                  0.0000000000000000
    Total Energy =                       -195.1737440244271795

Computation Completed


Properties will be evaluated at   0.000000,   0.000000,   0.000000 [a0]

Properties computed using the SCF density matrix


 Multipole Moments:

 ------------------------------------------------------------------------------------
     Multipole            Electronic (a.u.)      Nuclear  (a.u.)        Total (a.u.)
 ------------------------------------------------------------------------------------

 L = 1.  Multiply by 2.5417464519 to convert [e a0] to [Debye]
 Dipole X            :          0.0000000            0.0000000            0.0000000
 Dipole Y            :          0.0000000           -0.0000000           -0.0000000
 Dipole Z            :         -1.2907623            1.2479513           -0.0428110
 Magnitude           :                                                    0.0428110

 ------------------------------------------------------------------------------------

*** tstop() called on choehoyun-ui-MacBookAir.local at Mon Aug 10 18:40:05 2026
Module time:
	user time   =       7.17 seconds =       0.12 minutes
	system time =       0.23 seconds =       0.00 minutes
	total time  =          2 seconds =       0.03 minutes
Total time:
	user time   =       7.17 seconds =       0.12 minutes
	system time =       0.23 seconds =       0.00 minutes
	total time  =          2 seconds =       0.03 minutes

    Psi4 stopped on: Monday, 10 August 2026 06:40PM
    Psi4 wall time for execution: 0:00:01.61

*** Psi4 exiting successfully. Buy a developer a beer!
