
    -----------------------------------------------------------------------
          Psi4: An Open-Source Ab Initio Electronic Structure Package
                               Psi4 1.11 release

                         Git: Rev {} zzzzzzz 


    D. G. A. Smith, L. A. Burns, A. C. Simmonett, R. M. Parrish,
    M. C. Schieber, R. Galvelis, P. Kraus, H. Kruse, R. Di Remigio,
    A. Alenaizan, A. M. James, S. Lehtola, J. P. Misiewicz, M. Scheurer,
    R. A. Shaw, J. B. Schriber, Y. Xie, Z. L. Glick, D. A. Sirianni,
    J. S. O'Brien, J. M. Waldrop, A. Kumar, E. G. Hohenstein,
    B. P. Pritchard, B. R. Brooks, H. F. Schaefer III, A. Yu. Sokolov,
    K. Patkowski, A. E. DePrince III, U. Bozkaya, R. A. King,
    F. A. Evangelista, J. M. Turney, T. D. Crawford, C. D. Sherrill,
    J. Chem. Phys. 152(18) 184108 (2020). https://doi.org/10.1063/5.0006002

                            Additional Code Authors
    E. T. Seidl, C. L. Janssen, E. F. Valeev, M. L. Leininger,
    J. F. Gonthier, R. M. Richard, H. R. McAlexander, M. Saitow, X. Wang,
    P. Verma, M. H. Lechner, A. Jiang, S. Behnle, A. G. Heide,
    M. F. Herbst, D. L. Poole, T. Győri, E. C. Mitchell, J. P. Pederson,
    and A. M. Wallace

             Previous Authors, Complete List of Code Contributors,
                       and Citations for Specific Modules
    https://github.com/psi4/psi4/blob/master/codemeta.json
    https://github.com/psi4/psi4/graphs/contributors
    https://psicode.org/psi4manual/master/introduction.html#citing-psifour

    -----------------------------------------------------------------------


    Psi4 started on: Sunday, 09 August 2026 04:21PM

    Process ID: 61872
    Host:       choehoyun-ui-MacBookAir.local
    PSIDATADIR: /Users/hoyoun/micromamba/envs/psi4env/share/psi4
    Memory:     500.0 MiB
    Threads:    8
    Addons:     a̶d̶c̶c̶, a̶m̶b̶i̶t̶, b̶s̶e̶, c̶c̶t̶3̶, c̶f̶o̶u̶r̶, c̶h̶e̶m̶p̶s̶2̶, c̶p̶p̶e̶, d̶d̶x̶, dftd3,
                d̶f̶t̶d̶4̶, dkh, ecpint, einsums, f̶o̶r̶t̶e̶, gauxc, g̶c̶p̶, g̶d̶m̶a̶,
                g̶e̶o̶m̶e̶t̶r̶i̶c̶, g̶p̶u̶_̶d̶f̶c̶c̶, i̶n̶t̶e̶g̶r̶a̶t̶o̶r̶x̶x̶, i̶p̶i̶,
                l̶i̶b̶e̶f̶p̶, m̶d̶i̶, m̶p̶2̶d̶, m̶r̶c̶c̶, ooo, o̶p̶e̶n̶f̶e̶r̶m̶i̶o̶n̶p̶s̶i̶4̶,
                pcmsolver, p̶s̶i̶4̶f̶o̶c̶k̶c̶i̶, p̶s̶i̶x̶a̶s̶, p̶y̶e̶i̶n̶s̶u̶m̶s̶, r̶e̶s̶p̶,
                s̶i̶m̶i̶n̶t̶, s̶n̶s̶m̶p̶2̶, v̶2̶r̶d̶m̶_̶c̶a̶s̶s̶c̶f̶

  ==> Input File <==

--------------------------------------------------------------------------
memory 3 GB
molecule mol {
0 1
C -1.68608688025624 -1.27794190943148 -0.05485199609061
C -1.67940588091168 0.11968099136346 0.49325696504684
C -0.52009796297726 -0.71277694923678 0.02180199842889
C -2.19500484433062 1.29886990766612 -0.30924797799331
C 0.89584493644021 -0.72048994891970 -0.16974098776585
C 1.67703288096127 0.31877897762619 0.14421798981836
H -3.27063576751970 1.43125089861540 -0.16940398813839
H -2.00913685720601 1.15165691824106 -1.37421890249922
H -1.70918187874909 2.22967584143776 -0.00662099964486
H 1.33526890543825 -1.62011988515793 -0.59014895834390
H 1.20510591420088 1.20327291472287 0.55988296040121
H -2.28921483734522 -2.12647284897282 -0.32154397723747
C 3.15683577597691 0.36237497438288 -0.03273799742406
H 3.66031074020808 0.53942596163491 0.92163093440316
H 3.53949874844613 -0.56693595968315 -0.45389496754313
H 3.44842775527003 1.18406391584888 -0.69266995092366
H -1.80515887173077 0.24319998279767 1.57080088872466
units angstrom
no_reorient
no_com
}
set basis def2-TZVP
set scf_type df
set freeze_core true
set e_convergence 8
energy('b3lyp-d3bj')
--------------------------------------------------------------------------

  Memory set to   2.794 GiB by Python driver.

Scratch directory: /Users/hoyoun/Documents/Yonsei_AX_Camp/(진짜_이게_최종)/calibration/dft_work/_scratch/R40/
   => Libint2 <=

    Primary   basis highest AM E, G, H:  7, 6, 3
    Auxiliary basis highest AM E, G, H:  7, 7, 4
    Onebody   basis highest AM E, G, H:  -, -, -
    Solid Harmonics ordering:            Gaussian

*** tstart() called on choehoyun-ui-MacBookAir.local
*** at Sun Aug  9 16:21:04 2026

   => Loading Basis Set <=

    Name: DEF2-TZVP
    Role: ORBITAL
    Keyword: BASIS
    atoms 1-6, 13     entry C          line   123 file /Users/hoyoun/micromamba/envs/psi4env/share/psi4/basis/def2-tzvp.gbs 
    atoms 7-12, 14-17 entry H          line    15 file /Users/hoyoun/micromamba/envs/psi4env/share/psi4/basis/def2-tzvp.gbs 

   => B3LYP-D3(BJ): Empirical Dispersion <=

    Grimme's -D3 (BJ-damping) Dispersion Correction
    Grimme S.; Ehrlich S.; Goerigk L. (2011), J. Comput. Chem., 32: 1456

        s6 =       1.000000
        s8 =       1.988900
        a1 =       0.398100
        a2 =       4.421100


         ---------------------------------------------------------
                                   SCF
               by Justin Turney, Rob Parrish, Andy Simmonett
                          and Daniel G. A. Smith
                              RKS Reference
                        8 Threads,   2861 MiB Core
         ---------------------------------------------------------

  ==> Geometry <==

    Molecular point group: c1
    Full point group: C1

    Geometry (in Angstrom), charge = 0, multiplicity = 1:

       Center              X                  Y                   Z               Mass       
    ------------   -----------------  -----------------  -----------------  -----------------
         C           -1.686086880256    -1.277941909431    -0.054851996091    12.000000000000
         C           -1.679405880912     0.119680991363     0.493256965047    12.000000000000
         C           -0.520097962977    -0.712776949237     0.021801998429    12.000000000000
         C           -2.195004844331     1.298869907666    -0.309247977993    12.000000000000
         C            0.895844936440    -0.720489948920    -0.169740987766    12.000000000000
         C            1.677032880961     0.318778977626     0.144217989818    12.000000000000
         H           -3.270635767520     1.431250898615    -0.169403988138     1.007825032230
         H           -2.009136857206     1.151656918241    -1.374218902499     1.007825032230
         H           -1.709181878749     2.229675841438    -0.006620999645     1.007825032230
         H            1.335268905438    -1.620119885158    -0.590148958344     1.007825032230
         H            1.205105914201     1.203272914723     0.559882960401     1.007825032230
         H           -2.289214837345    -2.126472848973    -0.321543977237     1.007825032230
         C            3.156835775977     0.362374974383    -0.032737997424    12.000000000000
         H            3.660310740208     0.539425961635     0.921630934403     1.007825032230
         H            3.539498748446    -0.566935959683    -0.453894967543     1.007825032230
         H            3.448427755270     1.184063915849    -0.692669950924     1.007825032230
         H           -1.805158871731     0.243199982798     1.570800888725     1.007825032230

  Running in c1 symmetry.

  Rotational constants: A =      0.19666  B =      0.04541  C =      0.03884 [cm^-1]
  Rotational constants: A =   5895.66257  B =   1361.47838  C =   1164.38507 [MHz]
  Nuclear repulsion =  267.351253863675879

  Charge       = 0
  Multiplicity = 1
  Electrons    = 52
  Nalpha       = 26
  Nbeta        = 26

  ==> Algorithm <==

  SCF Algorithm Type is DF.
  DIIS enabled.
  MOM disabled.
  Fractional occupation disabled.
  Guess Type is SAD.
  Energy threshold   = 1.00e-08
  Density threshold  = 1.00e-06
  Integral threshold = 1.00e-12

  ==> Primary Basis <==

  Basis Set: DEF2-TZVP
    Blend: DEF2-TZVP
    Number of shells: 117
    Number of basis functions: 277
    Number of Cartesian functions: 312
    Spherical Harmonics?: true
    Max angular momentum: 3

  ==> DFT Potential <==

   => LibXC <=

    Version 7.1.2
    S. Lehtola, C. Steigemann, M. J. T. Oliveira, and M. A. L. Marques,  SoftwareX 7, 1–5 (2018) (10.1016/j.softx.2017.11.002)

   => Composite Functional: B3LYP-D3BJ2B <= 

    B3LYP-d3bj2b Hyb-GGA Exchange-Correlation Functional

    P. J. Stephens, F. J. Devlin, C. F. Chabalowski, and M. J. Frisch,  J. Phys. Chem. 98, 11623 (1994) (10.1021/j100096a001)

    Deriv               =              1
    GGA                 =           TRUE
    Meta                =          FALSE

    Exchange Hybrid     =           TRUE
    MP2 Hybrid          =          FALSE

   => Exchange Functionals <=

    0.0800   Slater exchange
    0.7200         Becke 88

   => Exact (HF) Exchange <=

    0.2000               HF 

   => Correlation Functionals <=

    0.1900   Vosko, Wilk & Nusair (VWN5_RPA)
    0.8100   Lee, Yang & Parr

   => LibXC Density Thresholds  <==

    XC_HYB_GGA_XC_B3LYP:  1.00E-15 

   => Molecular Quadrature <=

    Radial Scheme          =       TREUTLER
    Pruning Scheme         =           NONE
    Nuclear Scheme         =       TREUTLER

    Blocking Scheme        =         OCTREE
    BS radius alpha        =              1
    Pruning alpha          =              1
    Radial Points          =             75
    Spherical Points       =            302
    Total Points           =         361322
    Total Blocks           =           2692
    Max Points             =            256
    Max Functions          =            258
    Weights Tolerance      =       1.00E-15

   => Loading Basis Set <=

    Name: (DEF2-TZVP AUX)
    Role: JKFIT
    Keyword: DF_BASIS_SCF
    atoms 1-6, 13     entry C          line   198 file /Users/hoyoun/micromamba/envs/psi4env/share/psi4/basis/def2-universal-jkfit.gbs 
    atoms 7-12, 14-17 entry H          line    18 file /Users/hoyoun/micromamba/envs/psi4env/share/psi4/basis/def2-universal-jkfit.gbs 

  ==> Integral Setup <==

  DFHelper Memory: AOs need 0.394 GiB; user supplied 0.394 GiB. 
  SCF_SUBTYPE=INCORE selected. In-core MEM_DF algorithm will be used.
  Using in-core AOs.

  ==> MemDFJK: Density-Fitted J/K Matrices <==

    J tasked:                   Yes
    K tasked:                   Yes
    wK tasked:                   No
    OpenMP threads:               8
    Memory [MiB]:               403
    Algorithm:                 Core
    Schwarz Cutoff:           1E-12
    Mask sparsity (%):       8.1612
    Fitting Condition:        1E-10

   => Auxiliary Basis Set <=

  Basis Set: (DEF2-TZVP AUX)
    Blend: DEF2-UNIVERSAL-JKFIT
    Number of shells: 235
    Number of basis functions: 705
    Number of Cartesian functions: 823
    Spherical Harmonics?: true
    Max angular momentum: 4

  Cached 50.0% of DFT collocation blocks in 0.976 [GiB].

  Minimum eigenvalue in the overlap matrix is 4.7842221873E-05.
  Reciprocal condition number of the overlap matrix is 5.1529701985E-06.
    Using symmetric orthogonalization.

  ==> Pre-Iterations <==

  SCF Guess: Superposition of Atomic Densities via on-the-fly atomic UHF (no occupation information).

   -------------------------
    Irrep   Nso     Nmo    
   -------------------------
     A        277     277 
   -------------------------
    Total     277     277
   -------------------------

  ==> Iterations <==

                           Total Energy        Delta E     RMS |[F,P]|

   @DF-RKS iter SAD:  -272.02767555372952   -2.72028e+02   0.00000e+00 
   @DF-RKS iter   1:  -272.00586939203555    2.18062e-02   4.43067e-03 DIIS/ADIIS
   @DF-RKS iter   2:  -271.54177152613590    4.64098e-01   5.36351e-03 DIIS/ADIIS
   @DF-RKS iter   3:  -272.77072116048845   -1.22895e+00   7.63065e-04 DIIS/ADIIS
   @DF-RKS iter   4:  -272.78135060714561   -1.06294e-02   5.78903e-04 DIIS/ADIIS
   @DF-RKS iter   5:  -272.79294263112843   -1.15920e-02   1.45689e-04 DIIS/ADIIS
   @DF-RKS iter   6:  -272.79372886730096   -7.86236e-04   3.87472e-05 DIIS
   @DF-RKS iter   7:  -272.79378861318963   -5.97459e-05   9.03798e-06 DIIS
   @DF-RKS iter   8:  -272.79379109467379   -2.48148e-06   4.47068e-06 DIIS
   @DF-RKS iter   9:  -272.79379183268850   -7.38015e-07   1.13006e-06 DIIS
   @DF-RKS iter  10:  -272.79379188288385   -5.01954e-08   2.54175e-07 DIIS
   @DF-RKS iter  11:  -272.79379188519647   -2.31262e-09   6.94904e-08 DIIS
  Energy and wave function converged.


  ==> Post-Iterations <==

   Electrons on quadrature grid:
      Ntotal   =   51.9999607495 ; deviation = -3.925e-05 

    Orbital Energies [Eh]
    ---------------------

    Doubly Occupied:                                                      

       1A    -10.185268     2A    -10.182707     3A    -10.181565  
       4A    -10.180440     5A    -10.174557     6A    -10.173796  
       7A    -10.150550     8A     -0.876988     9A     -0.803303  
      10A     -0.718606    11A     -0.700737    12A     -0.591440  
      13A     -0.562345    14A     -0.530304    15A     -0.498981  
      16A     -0.446540    17A     -0.431730    18A     -0.422853  
      19A     -0.406998    20A     -0.395668    21A     -0.375944  
      22A     -0.368124    23A     -0.325824    24A     -0.305462  
      25A     -0.274978    26A     -0.224600  

    Virtual:                                                              

      27A     -0.036367    28A      0.041611    29A      0.052782  
      30A      0.063742    31A      0.074184    32A      0.083258  
      33A      0.089950    34A      0.099480    35A      0.110578  
      36A      0.114593    37A      0.123703    38A      0.129085  
      39A      0.150362    40A      0.159128    41A      0.160131  
      42A      0.169771    43A      0.191698    44A      0.195414  
      45A      0.203194    46A      0.224100    47A      0.237988  
      48A      0.249650    49A      0.256794    50A      0.257958  
      51A      0.276872    52A      0.291067    53A      0.293007  
      54A      0.326953    55A      0.338370    56A      0.342250  
      57A      0.353627    58A      0.374771    59A      0.388751  
      60A      0.398265    61A      0.407276    62A      0.412860  
      63A      0.417362    64A      0.424651    65A      0.436655  
      66A      0.438837    67A      0.448927    68A      0.454661  
      69A      0.456969    70A      0.473555    71A      0.485286  
      72A      0.488406    73A      0.499776    74A      0.502293  
      75A      0.542685    76A      0.565389    77A      0.575810  
      78A      0.602782    79A      0.610806    80A      0.633059  
      81A      0.638880    82A      0.665837    83A      0.691474  
      84A      0.711254    85A      0.731808    86A      0.751373  
      87A      0.773808    88A      0.820178    89A      0.840124  
      90A      0.854292    91A      0.879100    92A      0.889953  
      93A      0.927425    94A      0.935117    95A      0.955522  
      96A      0.983466    97A      0.987068    98A      1.012543  
      99A      1.026528   100A      1.037180   101A      1.058862  
     102A      1.071453   103A      1.101566   104A      1.109021  
     105A      1.132120   106A      1.150517   107A      1.160969  
     108A      1.188020   109A      1.211057   110A      1.229708  
     111A      1.247906   112A      1.254386   113A      1.287115  
     114A      1.303506   115A      1.375760   116A      1.381394  
     117A      1.421980   118A      1.447682   119A      1.495899  
     120A      1.498474   121A      1.505753   122A      1.510216  
     123A      1.525530   124A      1.528604   125A      1.539815  
     126A      1.561368   127A      1.566805   128A      1.581448  
     129A      1.601480   130A      1.608395   131A      1.653506  
     132A      1.663345   133A      1.680469   134A      1.708149  
     135A      1.723926   136A      1.738671   137A      1.765894  
     138A      1.821143   139A      1.842164   140A      1.858042  
     141A      1.873092   142A      1.899135   143A      1.919770  
     144A      1.944510   145A      1.974357   146A      2.022075  
     147A      2.055057   148A      2.074727   149A      2.077471  
     150A      2.106067   151A      2.113465   152A      2.147187  
     153A      2.169168   154A      2.182578   155A      2.204153  
     156A      2.215327   157A      2.253304   158A      2.288172  
     159A      2.306565   160A      2.324144   161A      2.339276  
     162A      2.360271   163A      2.362920   164A      2.384554  
     165A      2.390579   166A      2.429058   167A      2.464487  
     168A      2.483960   169A      2.511992   170A      2.513729  
     171A      2.535962   172A      2.567309   173A      2.572592  
     174A      2.576563   175A      2.605475   176A      2.617045  
     177A      2.642797   178A      2.658189   179A      2.664657  
     180A      2.692885   181A      2.721401   182A      2.733837  
     183A      2.745007   184A      2.782268   185A      2.811832  
     186A      2.835332   187A      2.850953   188A      2.874616  
     189A      2.891641   190A      2.895076   191A      2.912286  
     192A      2.947742   193A      2.957280   194A      3.002819  
     195A      3.010073   196A      3.030303   197A      3.040560  
     198A      3.062882   199A      3.064574   200A      3.078909  
     201A      3.098840   202A      3.109646   203A      3.129347  
     204A      3.136381   205A      3.148019   206A      3.162673  
     207A      3.180547   208A      3.205158   209A      3.220398  
     210A      3.231200   211A      3.269753   212A      3.275221  
     213A      3.290539   214A      3.305243   215A      3.322725  
     216A      3.343890   217A      3.353699   218A      3.365734  
     219A      3.405569   220A      3.410250   221A      3.420891  
     222A      3.465296   223A      3.484167   224A      3.534735  
     225A      3.551424   226A      3.557903   227A      3.582607  
     228A      3.604735   229A      3.620724   230A      3.652814  
     231A      3.675236   232A      3.691354   233A      3.702917  
     234A      3.721724   235A      3.746708   236A      3.819366  
     237A      3.846412   238A      3.904736   239A      3.933960  
     240A      3.950403   241A      3.995972   242A      4.027820  
     243A      4.072883   244A      4.113659   245A      4.157229  
     246A      4.191692   247A      4.227560   248A      4.259443  
     249A      4.305191   250A      4.342734   251A      4.373022  
     252A      4.416152   253A      4.435920   254A      4.488114  
     255A      4.508359   256A      4.576647   257A      4.613331  
     258A      4.640773   259A      4.691720   260A      4.703434  
     261A      4.709897   262A      4.767925   263A      4.785183  
     264A      4.845933   265A      4.964644   266A      5.039895  
     267A      5.201359   268A      5.238827   269A      5.375300  
     270A      5.476784   271A     22.304346   272A     22.322906  
     273A     22.366121   274A     22.452562   275A     22.569735  
     276A     22.879337   277A     23.381443  

    Final Occupation by Irrep:
              A 
    DOCC [    26 ]
    NA   [    26 ]
    NB   [    26 ]

  @DF-RKS Final Energy:  -272.79379188519647

   => Energetics <=

    Nuclear Repulsion Energy =            267.3512538636758791
    One-Electron Energy =                -894.9613236164327645
    Two-Electron Energy =                 388.6307980315711461
    DFT Exchange-Correlation Energy =     -33.7918413080901558
    Empirical Dispersion Energy =          -0.0226788559205974
    VV10 Nonlocal Energy =                  0.0000000000000000
    Total Energy =                       -272.7937918851965264

Computation Completed


Properties will be evaluated at   0.000000,   0.000000,   0.000000 [a0]

Properties computed using the SCF density matrix


 Multipole Moments:

 ------------------------------------------------------------------------------------
     Multipole            Electronic (a.u.)      Nuclear  (a.u.)        Total (a.u.)
 ------------------------------------------------------------------------------------

 L = 1.  Multiply by 2.5417464519 to convert [e a0] to [Debye]
 Dipole X            :          0.4203305           -0.0000151            0.4203154
 Dipole Y            :          0.0208409           -0.0000113            0.0208295
 Dipole Z            :         -0.0397970            0.0000019           -0.0397951
 Magnitude           :                                                    0.4227086

 ------------------------------------------------------------------------------------

*** tstop() called on choehoyun-ui-MacBookAir.local at Sun Aug  9 16:21:12 2026
Module time:
	user time   =      52.99 seconds =       0.88 minutes
	system time =       1.29 seconds =       0.02 minutes
	total time  =          8 seconds =       0.13 minutes
Total time:
	user time   =      52.99 seconds =       0.88 minutes
	system time =       1.29 seconds =       0.02 minutes
	total time  =          8 seconds =       0.13 minutes

    Psi4 stopped on: Sunday, 09 August 2026 04:21PM
    Psi4 wall time for execution: 0:00:08.33

*** Psi4 exiting successfully. Buy a developer a beer!
