
    -----------------------------------------------------------------------
          Psi4: An Open-Source Ab Initio Electronic Structure Package
                               Psi4 1.11 release

                         Git: Rev {} zzzzzzz 


    D. G. A. Smith, L. A. Burns, A. C. Simmonett, R. M. Parrish,
    M. C. Schieber, R. Galvelis, P. Kraus, H. Kruse, R. Di Remigio,
    A. Alenaizan, A. M. James, S. Lehtola, J. P. Misiewicz, M. Scheurer,
    R. A. Shaw, J. B. Schriber, Y. Xie, Z. L. Glick, D. A. Sirianni,
    J. S. O'Brien, J. M. Waldrop, A. Kumar, E. G. Hohenstein,
    B. P. Pritchard, B. R. Brooks, H. F. Schaefer III, A. Yu. Sokolov,
    K. Patkowski, A. E. DePrince III, U. Bozkaya, R. A. King,
    F. A. Evangelista, J. M. Turney, T. D. Crawford, C. D. Sherrill,
    J. Chem. Phys. 152(18) 184108 (2020). https://doi.org/10.1063/5.0006002

                            Additional Code Authors
    E. T. Seidl, C. L. Janssen, E. F. Valeev, M. L. Leininger,
    J. F. Gonthier, R. M. Richard, H. R. McAlexander, M. Saitow, X. Wang,
    P. Verma, M. H. Lechner, A. Jiang, S. Behnle, A. G. Heide,
    M. F. Herbst, D. L. Poole, T. Győri, E. C. Mitchell, J. P. Pederson,
    and A. M. Wallace

             Previous Authors, Complete List of Code Contributors,
                       and Citations for Specific Modules
    https://github.com/psi4/psi4/blob/master/codemeta.json
    https://github.com/psi4/psi4/graphs/contributors
    https://psicode.org/psi4manual/master/introduction.html#citing-psifour

    -----------------------------------------------------------------------


    Psi4 started on: Monday, 10 August 2026 06:35PM

    Process ID: 75558
    Host:       choehoyun-ui-MacBookAir.local
    PSIDATADIR: /Users/hoyoun/micromamba/envs/psi4env/share/psi4
    Memory:     500.0 MiB
    Threads:    8
    Addons:     a̶d̶c̶c̶, a̶m̶b̶i̶t̶, b̶s̶e̶, c̶c̶t̶3̶, c̶f̶o̶u̶r̶, c̶h̶e̶m̶p̶s̶2̶, c̶p̶p̶e̶, d̶d̶x̶, dftd3,
                d̶f̶t̶d̶4̶, dkh, ecpint, einsums, f̶o̶r̶t̶e̶, gauxc, g̶c̶p̶, g̶d̶m̶a̶,
                g̶e̶o̶m̶e̶t̶r̶i̶c̶, g̶p̶u̶_̶d̶f̶c̶c̶, i̶n̶t̶e̶g̶r̶a̶t̶o̶r̶x̶x̶, i̶p̶i̶,
                l̶i̶b̶e̶f̶p̶, m̶d̶i̶, m̶p̶2̶d̶, m̶r̶c̶c̶, ooo, o̶p̶e̶n̶f̶e̶r̶m̶i̶o̶n̶p̶s̶i̶4̶,
                pcmsolver, p̶s̶i̶4̶f̶o̶c̶k̶c̶i̶, p̶s̶i̶x̶a̶s̶, p̶y̶e̶i̶n̶s̶u̶m̶s̶, r̶e̶s̶p̶,
                s̶i̶m̶i̶n̶t̶, s̶n̶s̶m̶p̶2̶, v̶2̶r̶d̶m̶_̶c̶a̶s̶s̶c̶f̶

  ==> Input File <==

--------------------------------------------------------------------------
memory 3 GB
molecule mol {
0 1
C 0.00504289146530 -0.51093708340336 -1.29794317986640
C -0.01838773756322 -1.88236241212277 -1.06950686982205
C -0.01578292572834 -2.37129465066091 0.23201237214169
C 0.01115541884651 -1.47597008211638 1.30059328001601
C 0.03219280420145 -0.10809397508506 1.07070056783914
C 0.02527092455291 0.40290221311625 -0.23588785743965
C 0.04001992836004 1.84237058005968 -0.53628860498087
C -0.04710225511526 2.85536427971126 0.32717848442114
H 0.00356784694444 -0.13665360394323 -2.31591484380127
H -0.03630633746738 -2.56791259838256 -1.90849475321487
H -0.03157684690165 -3.43889899954378 0.41542406344833
H 0.01826803338935 -1.84889666779701 2.31813784442523
H 0.06074100356181 0.56935921163095 1.91516940733321
H 0.12412381426029 2.08013750748916 -1.59385599497992
H -0.14533233712876 2.70965542988161 1.39640352055172
H -0.02589422567750 3.88123085116616 -0.01772743607147
units angstrom
no_reorient
no_com
}
set basis def2-SVP
set scf_type df
set freeze_core true
set e_convergence 8
energy('b3lyp-d3bj')
--------------------------------------------------------------------------

  Memory set to   2.794 GiB by Python driver.

Scratch directory: /Users/hoyoun/Documents/Yonsei_AX_Camp/(진짜_이게_최종)/calibration/dft_work/_scratch/E13/
   => Libint2 <=

    Primary   basis highest AM E, G, H:  7, 6, 3
    Auxiliary basis highest AM E, G, H:  7, 7, 4
    Onebody   basis highest AM E, G, H:  -, -, -
    Solid Harmonics ordering:            Gaussian

*** tstart() called on choehoyun-ui-MacBookAir.local
*** at Mon Aug 10 18:35:06 2026

   => Loading Basis Set <=

    Name: DEF2-SVP
    Role: ORBITAL
    Keyword: BASIS
    atoms 1-8  entry C          line    90 file /Users/hoyoun/micromamba/envs/psi4env/share/psi4/basis/def2-svp.gbs 
    atoms 9-16 entry H          line    15 file /Users/hoyoun/micromamba/envs/psi4env/share/psi4/basis/def2-svp.gbs 

   => B3LYP-D3(BJ): Empirical Dispersion <=

    Grimme's -D3 (BJ-damping) Dispersion Correction
    Grimme S.; Ehrlich S.; Goerigk L. (2011), J. Comput. Chem., 32: 1456

        s6 =       1.000000
        s8 =       1.988900
        a1 =       0.398100
        a2 =       4.421100


         ---------------------------------------------------------
                                   SCF
               by Justin Turney, Rob Parrish, Andy Simmonett
                          and Daniel G. A. Smith
                              RKS Reference
                        8 Threads,   2861 MiB Core
         ---------------------------------------------------------

  ==> Geometry <==

    Molecular point group: c1
    Full point group: C1

    Geometry (in Angstrom), charge = 0, multiplicity = 1:

       Center              X                  Y                   Z               Mass       
    ------------   -----------------  -----------------  -----------------  -----------------
         C            0.005042891465    -0.510937083403    -1.297943179866    12.000000000000
         C           -0.018387737563    -1.882362412123    -1.069506869822    12.000000000000
         C           -0.015782925728    -2.371294650661     0.232012372142    12.000000000000
         C            0.011155418847    -1.475970082116     1.300593280016    12.000000000000
         C            0.032192804201    -0.108093975085     1.070700567839    12.000000000000
         C            0.025270924553     0.402902213116    -0.235887857440    12.000000000000
         C            0.040019928360     1.842370580060    -0.536288604981    12.000000000000
         C           -0.047102255115     2.855364279711     0.327178484421    12.000000000000
         H            0.003567846944    -0.136653603943    -2.315914843801     1.007825032230
         H           -0.036306337467    -2.567912598383    -1.908494753215     1.007825032230
         H           -0.031576846902    -3.438898999544     0.415424063448     1.007825032230
         H            0.018268033389    -1.848896667797     2.318137844425     1.007825032230
         H            0.060741003562     0.569359211631     1.915169407333     1.007825032230
         H            0.124123814260     2.080137507489    -1.593855994980     1.007825032230
         H           -0.145332337129     2.709655429882     1.396403520552     1.007825032230
         H           -0.025894225677     3.881230851166    -0.017727436071     1.007825032230

  Running in c1 symmetry.

  Rotational constants: A =      0.17369  B =      0.05119  C =      0.03956 [cm^-1]
  Rotational constants: A =   5207.22276  B =   1534.50057  C =   1185.88913 [MHz]
  Nuclear repulsion =  320.353854389917785

  Charge       = 0
  Multiplicity = 1
  Electrons    = 56
  Nalpha       = 28
  Nbeta        = 28

  ==> Algorithm <==

  SCF Algorithm Type is DF.
  DIIS enabled.
  MOM disabled.
  Fractional occupation disabled.
  Guess Type is SAD.
  Energy threshold   = 1.00e-08
  Density threshold  = 1.00e-06
  Integral threshold = 1.00e-12

  ==> Primary Basis <==

  Basis Set: DEF2-SVP
    Blend: DEF2-SVP
    Number of shells: 72
    Number of basis functions: 152
    Number of Cartesian functions: 160
    Spherical Harmonics?: true
    Max angular momentum: 2

  ==> DFT Potential <==

   => LibXC <=

    Version 7.1.2
    S. Lehtola, C. Steigemann, M. J. T. Oliveira, and M. A. L. Marques,  SoftwareX 7, 1–5 (2018) (10.1016/j.softx.2017.11.002)

   => Composite Functional: B3LYP-D3BJ2B <= 

    B3LYP-d3bj2b Hyb-GGA Exchange-Correlation Functional

    P. J. Stephens, F. J. Devlin, C. F. Chabalowski, and M. J. Frisch,  J. Phys. Chem. 98, 11623 (1994) (10.1021/j100096a001)

    Deriv               =              1
    GGA                 =           TRUE
    Meta                =          FALSE

    Exchange Hybrid     =           TRUE
    MP2 Hybrid          =          FALSE

   => Exchange Functionals <=

    0.0800   Slater exchange
    0.7200         Becke 88

   => Exact (HF) Exchange <=

    0.2000               HF 

   => Correlation Functionals <=

    0.1900   Vosko, Wilk & Nusair (VWN5_RPA)
    0.8100   Lee, Yang & Parr

   => LibXC Density Thresholds  <==

    XC_HYB_GGA_XC_B3LYP:  1.00E-15 

   => Molecular Quadrature <=

    Radial Scheme          =       TREUTLER
    Pruning Scheme         =           NONE
    Nuclear Scheme         =       TREUTLER

    Blocking Scheme        =         OCTREE
    BS radius alpha        =              1
    Pruning alpha          =              1
    Radial Points          =             75
    Spherical Points       =            302
    Total Points           =         336671
    Total Blocks           =           2511
    Max Points             =            256
    Max Functions          =            147
    Weights Tolerance      =       1.00E-15

   => Loading Basis Set <=

    Name: (DEF2-SVP AUX)
    Role: JKFIT
    Keyword: DF_BASIS_SCF
    atoms 1-8  entry C          line   198 file /Users/hoyoun/micromamba/envs/psi4env/share/psi4/basis/def2-universal-jkfit.gbs 
    atoms 9-16 entry H          line    18 file /Users/hoyoun/micromamba/envs/psi4env/share/psi4/basis/def2-universal-jkfit.gbs 

  ==> Integral Setup <==

  DFHelper Memory: AOs need 0.130 GiB; user supplied 1.044 GiB. 
  SCF_SUBTYPE=INCORE selected. In-core MEM_DF algorithm will be used.
  Using in-core AOs.

  ==> MemDFJK: Density-Fitted J/K Matrices <==

    J tasked:                   Yes
    K tasked:                   Yes
    wK tasked:                   No
    OpenMP threads:               8
    Memory [MiB]:              1068
    Algorithm:                 Core
    Schwarz Cutoff:           1E-12
    Mask sparsity (%):       6.5184
    Fitting Condition:        1E-10

   => Auxiliary Basis Set <=

  Basis Set: (DEF2-SVP AUX)
    Blend: DEF2-UNIVERSAL-JKFIT
    Number of shells: 248
    Number of basis functions: 744
    Number of Cartesian functions: 872
    Spherical Harmonics?: true
    Max angular momentum: 4

  Cached 100.0% of DFT collocation blocks in 1.052 [GiB].

  Minimum eigenvalue in the overlap matrix is 2.9256939227E-04.
  Reciprocal condition number of the overlap matrix is 4.4986300608E-05.
    Using symmetric orthogonalization.

  ==> Pre-Iterations <==

  SCF Guess: Superposition of Atomic Densities via on-the-fly atomic UHF (no occupation information).

   -------------------------
    Irrep   Nso     Nmo    
   -------------------------
     A        152     152 
   -------------------------
    Total     152     152
   -------------------------

  ==> Iterations <==

                           Total Energy        Delta E     RMS |[F,P]|

   @DF-RKS iter SAD:  -308.92364501028140   -3.08924e+02   0.00000e+00 
   @DF-RKS iter   1:  -308.96185875530279   -3.82137e-02   5.85151e-03 DIIS/ADIIS
   @DF-RKS iter   2:  -308.90829058594483    5.35682e-02   6.41448e-03 DIIS/ADIIS
   @DF-RKS iter   3:  -309.45156635612904   -5.43276e-01   5.82811e-04 DIIS/ADIIS
   @DF-RKS iter   4:  -309.45317285516404   -1.60650e-03   4.45035e-04 DIIS/ADIIS
   @DF-RKS iter   5:  -309.45553340874716   -2.36055e-03   1.12195e-04 DIIS/ADIIS
   @DF-RKS iter   6:  -309.45566818480893   -1.34776e-04   3.97616e-05 DIIS
   @DF-RKS iter   7:  -309.45568858368733   -2.03989e-05   8.89012e-06 DIIS
   @DF-RKS iter   8:  -309.45568956753141   -9.83844e-07   2.71616e-06 DIIS
   @DF-RKS iter   9:  -309.45568965964520   -9.21138e-08   3.60038e-07 DIIS
   @DF-RKS iter  10:  -309.45568966081731   -1.17211e-09   2.04540e-07 DIIS
  Energy and wave function converged.


  ==> Post-Iterations <==

   Electrons on quadrature grid:
      Ntotal   =   55.9998833407 ; deviation = -1.167e-04 

    Orbital Energies [Eh]
    ---------------------

    Doubly Occupied:                                                      

       1A    -10.196982     2A    -10.193574     3A    -10.190817  
       4A    -10.190485     5A    -10.190076     6A    -10.189747  
       7A    -10.189560     8A    -10.185088     9A     -0.855866  
      10A     -0.784875    11A     -0.742274    12A     -0.720777  
      13A     -0.621541    14A     -0.602386    15A     -0.557805  
      16A     -0.515514    17A     -0.476194    18A     -0.456513  
      19A     -0.442001    20A     -0.423788    21A     -0.416112  
      22A     -0.380357    23A     -0.373717    24A     -0.348826  
      25A     -0.342094    26A     -0.306338    27A     -0.259089  
      28A     -0.231473  

    Virtual:                                                              

      29A     -0.040463    30A     -0.008762    31A      0.051112  
      32A      0.063063    33A      0.079060    34A      0.089026  
      35A      0.116065    36A      0.121287    37A      0.146420  
      38A      0.162885    39A      0.173553    40A      0.191602  
      41A      0.258202    42A      0.280731    43A      0.289698  
      44A      0.309187    45A      0.318694    46A      0.349940  
      47A      0.364007    48A      0.396784    49A      0.398792  
      50A      0.417147    51A      0.432480    52A      0.439323  
      53A      0.459296    54A      0.483693    55A      0.492977  
      56A      0.494943    57A      0.508714    58A      0.525079  
      59A      0.529958    60A      0.542099    61A      0.553936  
      62A      0.588739    63A      0.620771    64A      0.638051  
      65A      0.645293    66A      0.656252    67A      0.659825  
      68A      0.664084    69A      0.681457    70A      0.692194  
      71A      0.697327    72A      0.706717    73A      0.729952  
      74A      0.746393    75A      0.753486    76A      0.785847  
      77A      0.792169    78A      0.818156    79A      0.864269  
      80A      0.880849    81A      0.940991    82A      1.049157  
      83A      1.072210    84A      1.084282    85A      1.160734  
      86A      1.205730    87A      1.224010    88A      1.239973  
      89A      1.247216    90A      1.264877    91A      1.269281  
      92A      1.281511    93A      1.308195    94A      1.314456  
      95A      1.335076    96A      1.510967    97A      1.614410  
      98A      1.629965    99A      1.648204   100A      1.658826  
     101A      1.694996   102A      1.704345   103A      1.709705  
     104A      1.732461   105A      1.753731   106A      1.760770  
     107A      1.765087   108A      1.784916   109A      1.790417  
     110A      1.796212   111A      1.840864   112A      1.875394  
     113A      1.918253   114A      1.953001   115A      1.953898  
     116A      1.963791   117A      1.986570   118A      1.995084  
     119A      2.044093   120A      2.081411   121A      2.100987  
     122A      2.106208   123A      2.141022   124A      2.150975  
     125A      2.218155   126A      2.249647   127A      2.270948  
     128A      2.291557   129A      2.312210   130A      2.336655  
     131A      2.352515   132A      2.409823   133A      2.412855  
     134A      2.480372   135A      2.566721   136A      2.594447  
     137A      2.606571   138A      2.622672   139A      2.667326  
     140A      2.725654   141A      2.740686   142A      2.747489  
     143A      2.783848   144A      2.868677   145A      2.887247  
     146A      2.916676   147A      3.016106   148A      3.074420  
     149A      3.148599   150A      3.240006   151A      3.385849  
     152A      3.662765  

    Final Occupation by Irrep:
              A 
    DOCC [    28 ]
    NA   [    28 ]
    NB   [    28 ]

  @DF-RKS Final Energy:  -309.45568966081731

   => Energetics <=

    Nuclear Repulsion Energy =            320.3538543899177853
    One-Electron Energy =               -1049.8358956023873816
    Two-Electron Energy =                 457.5457668482293911
    DFT Exchange-Correlation Energy =     -37.4917785080331427
    Empirical Dispersion Energy =          -0.0276367885440302
    VV10 Nonlocal Energy =                  0.0000000000000000
    Total Energy =                       -309.4556896608173133

Computation Completed


Properties will be evaluated at   0.000000,   0.000000,   0.000000 [a0]

Properties computed using the SCF density matrix


 Multipole Moments:

 ------------------------------------------------------------------------------------
     Multipole            Electronic (a.u.)      Nuclear  (a.u.)        Total (a.u.)
 ------------------------------------------------------------------------------------

 L = 1.  Multiply by 2.5417464519 to convert [e a0] to [Debye]
 Dipole X            :         -0.3066758            0.3062211           -0.0004547
 Dipole Y            :         11.7260773          -11.7920907           -0.0660134
 Dipole Z            :          1.9766667           -1.9761037            0.0005631
 Magnitude           :                                                    0.0660173

 ------------------------------------------------------------------------------------

*** tstop() called on choehoyun-ui-MacBookAir.local at Mon Aug 10 18:35:09 2026
Module time:
	user time   =      18.90 seconds =       0.32 minutes
	system time =       0.52 seconds =       0.01 minutes
	total time  =          3 seconds =       0.05 minutes
Total time:
	user time   =      18.90 seconds =       0.32 minutes
	system time =       0.52 seconds =       0.01 minutes
	total time  =          3 seconds =       0.05 minutes

    Psi4 stopped on: Monday, 10 August 2026 06:35PM
    Psi4 wall time for execution: 0:00:03.52

*** Psi4 exiting successfully. Buy a developer a beer!
