
    -----------------------------------------------------------------------
          Psi4: An Open-Source Ab Initio Electronic Structure Package
                               Psi4 1.11 release

                         Git: Rev {} zzzzzzz 


    D. G. A. Smith, L. A. Burns, A. C. Simmonett, R. M. Parrish,
    M. C. Schieber, R. Galvelis, P. Kraus, H. Kruse, R. Di Remigio,
    A. Alenaizan, A. M. James, S. Lehtola, J. P. Misiewicz, M. Scheurer,
    R. A. Shaw, J. B. Schriber, Y. Xie, Z. L. Glick, D. A. Sirianni,
    J. S. O'Brien, J. M. Waldrop, A. Kumar, E. G. Hohenstein,
    B. P. Pritchard, B. R. Brooks, H. F. Schaefer III, A. Yu. Sokolov,
    K. Patkowski, A. E. DePrince III, U. Bozkaya, R. A. King,
    F. A. Evangelista, J. M. Turney, T. D. Crawford, C. D. Sherrill,
    J. Chem. Phys. 152(18) 184108 (2020). https://doi.org/10.1063/5.0006002

                            Additional Code Authors
    E. T. Seidl, C. L. Janssen, E. F. Valeev, M. L. Leininger,
    J. F. Gonthier, R. M. Richard, H. R. McAlexander, M. Saitow, X. Wang,
    P. Verma, M. H. Lechner, A. Jiang, S. Behnle, A. G. Heide,
    M. F. Herbst, D. L. Poole, T. Győri, E. C. Mitchell, J. P. Pederson,
    and A. M. Wallace

             Previous Authors, Complete List of Code Contributors,
                       and Citations for Specific Modules
    https://github.com/psi4/psi4/blob/master/codemeta.json
    https://github.com/psi4/psi4/graphs/contributors
    https://psicode.org/psi4manual/master/introduction.html#citing-psifour

    -----------------------------------------------------------------------


    Psi4 started on: Monday, 10 August 2026 07:41PM

    Process ID: 79421
    Host:       choehoyun-ui-MacBookAir.local
    PSIDATADIR: /Users/hoyoun/micromamba/envs/psi4env/share/psi4
    Memory:     500.0 MiB
    Threads:    8
    Addons:     a̶d̶c̶c̶, a̶m̶b̶i̶t̶, b̶s̶e̶, c̶c̶t̶3̶, c̶f̶o̶u̶r̶, c̶h̶e̶m̶p̶s̶2̶, c̶p̶p̶e̶, d̶d̶x̶, dftd3,
                d̶f̶t̶d̶4̶, dkh, ecpint, einsums, f̶o̶r̶t̶e̶, gauxc, g̶c̶p̶, g̶d̶m̶a̶,
                g̶e̶o̶m̶e̶t̶r̶i̶c̶, g̶p̶u̶_̶d̶f̶c̶c̶, i̶n̶t̶e̶g̶r̶a̶t̶o̶r̶x̶x̶, i̶p̶i̶,
                l̶i̶b̶e̶f̶p̶, m̶d̶i̶, m̶p̶2̶d̶, m̶r̶c̶c̶, ooo, o̶p̶e̶n̶f̶e̶r̶m̶i̶o̶n̶p̶s̶i̶4̶,
                pcmsolver, p̶s̶i̶4̶f̶o̶c̶k̶c̶i̶, p̶s̶i̶x̶a̶s̶, p̶y̶e̶i̶n̶s̶u̶m̶s̶, r̶e̶s̶p̶,
                s̶i̶m̶i̶n̶t̶, s̶n̶s̶m̶p̶2̶, v̶2̶r̶d̶m̶_̶c̶a̶s̶s̶c̶f̶

  ==> Input File <==

--------------------------------------------------------------------------
memory 3 GB
molecule mol {
1 1
C -0.18487763002775 -0.33153432931133 0.05824529153342
C 0.51180178399009 0.86636775847532 -0.52595327072996
C 0.40330261865702 -1.67130737915863 -0.24154984151189
C -0.01140454959928 2.23688402108651 0.02618730921384
C 0.47707644000234 0.81898415944604 -2.07693711205363
C -0.44241350798234 2.08389518418310 1.49602855634515
H 0.85168214251884 2.91484263630272 -0.00123259254184
C -1.12175125587383 2.90321768173180 -0.80180548739678
C -1.61411429567683 1.10220274919411 1.61923231322128
H 0.39798677407359 1.71599779745142 2.10011151205471
H -0.73165604832509 3.06062388181395 1.89998733200347
C -1.26537453193048 -0.24107815654951 0.95404537848144
H -1.86032088535398 0.90802898837517 2.66911592177099
H -2.50799612897532 1.55544814934427 1.17297835101199
H -1.30333659965654 -1.11486185570804 1.62210488204876
Si -2.98329386504441 -0.96860400898684 -0.05041016118696
C 1.86898970347524 -1.72270290879486 0.28242647028891
C 2.70365290970819 -0.60494354820413 -0.35583493188373
C 2.02876407062217 0.74552670438851 -0.07225716327908
H -0.18536492301091 -2.46892770311895 0.21796339483882
H 0.42722908790877 -1.83624655624030 -1.32681297457030
H 1.86102599051035 -1.61251454193245 1.37454923008602
H 2.28452798386208 -2.70970451567527 0.04979464142376
C 4.15007117202265 -0.60571635606463 0.12311145864639
H 2.71823181572231 -0.76917637947493 -1.44098839274853
H 2.08003013191487 0.95503060815992 1.00214744768706
H 2.55958922001363 1.55213497711812 -0.59105877831681
C -4.20939977392964 -0.92798923011604 1.38492426561818
C -3.47465999938656 0.17606466471520 -1.46384562891691
C -2.65009197879921 -2.72434247094517 -0.65051637015802
H -5.17830949246564 -1.30267166032973 1.02372973324653
H -3.88709857007167 -1.57231567343378 2.21295547372661
H -4.36326681555010 0.08681187624563 1.76911529677070
H -4.33206951969956 -0.29078221057344 -1.97202754011581
H -3.80014675026167 1.16289082517865 -1.11645612898772
H -2.68082947047870 0.30533185074213 -2.20822601054493
H -3.59999471248270 -3.12412884523181 -1.03598986338257
H -1.91979527848658 -2.76770797480642 -1.46652561010634
H -2.31812900032849 -3.39057281007168 0.15546889378860
H 1.01657861250158 1.69325366651736 -2.45759258254480
H 0.96258466890080 -0.07932006662062 -2.46547172669635
H -0.54843343232473 0.85873738865943 -2.45613108149504
H -1.42561398043014 3.83702618567028 -0.31362566335977
H -0.78151391496221 3.14929663104071 -1.81239115162339
H -2.00553168648200 2.26623675973359 -0.89114492049210
C 5.15036196681024 -0.67301357360502 -0.76283309650282
C 4.39863031970665 -0.52441719307012 1.61032476025665
H 6.19078208469330 -0.66611728793338 -0.44252501665029
H 4.95845295152701 -0.73906561932944 -1.83332345671802
H 3.99265126438886 -1.40354567506862 2.13154847037232
H 5.47138977391676 -0.47247954765593 1.82271668561327
H 3.92139511014906 0.36095293243716 2.05465348446553
units angstrom
no_reorient
no_com
}
set basis def2-SVP
set scf_type disk_df
set freeze_core true
set e_convergence 8
energy('b3lyp-d3bj')
--------------------------------------------------------------------------

  Memory set to   2.794 GiB by Python driver.

Scratch directory: /Users/hoyoun/Documents/Yonsei_AX_Camp/(진짜_이게_최종)/calibration/dft_work/_scratch/i24e/
   => Libint2 <=

    Primary   basis highest AM E, G, H:  7, 6, 3
    Auxiliary basis highest AM E, G, H:  7, 7, 4
    Onebody   basis highest AM E, G, H:  -, -, -
    Solid Harmonics ordering:            Gaussian

*** tstart() called on choehoyun-ui-MacBookAir.local
*** at Mon Aug 10 19:41:32 2026

   => Loading Basis Set <=

    Name: DEF2-SVP
    Role: ORBITAL
    Keyword: BASIS
    atoms 1-6, 8-9, 12, 17-19, 24, 28-30, 46-47       entry C          line    90 file /Users/hoyoun/micromamba/envs/psi4env/share/psi4/basis/def2-svp.gbs 
    atoms 7, 10-11, 13-15, 20-23, 25-27, 31-45, 48-52 entry H          line    15 file /Users/hoyoun/micromamba/envs/psi4env/share/psi4/basis/def2-svp.gbs 
    atoms 16                                          entry SI         line   272 file /Users/hoyoun/micromamba/envs/psi4env/share/psi4/basis/def2-svp.gbs 

   => B3LYP-D3(BJ): Empirical Dispersion <=

    Grimme's -D3 (BJ-damping) Dispersion Correction
    Grimme S.; Ehrlich S.; Goerigk L. (2011), J. Comput. Chem., 32: 1456

        s6 =       1.000000
        s8 =       1.988900
        a1 =       0.398100
        a2 =       4.421100


         ---------------------------------------------------------
                                   SCF
               by Justin Turney, Rob Parrish, Andy Simmonett
                          and Daniel G. A. Smith
                              RKS Reference
                        8 Threads,   2861 MiB Core
         ---------------------------------------------------------

  ==> Geometry <==

    Molecular point group: c1
    Full point group: C1

    Geometry (in Angstrom), charge = 1, multiplicity = 1:

       Center              X                  Y                   Z               Mass       
    ------------   -----------------  -----------------  -----------------  -----------------
         C           -0.184877630028    -0.331534329311     0.058245291533    12.000000000000
         C            0.511801783990     0.866367758475    -0.525953270730    12.000000000000
         C            0.403302618657    -1.671307379159    -0.241549841512    12.000000000000
         C           -0.011404549599     2.236884021087     0.026187309214    12.000000000000
         C            0.477076440002     0.818984159446    -2.076937112054    12.000000000000
         C           -0.442413507982     2.083895184183     1.496028556345    12.000000000000
         H            0.851682142519     2.914842636303    -0.001232592542     1.007825032230
         C           -1.121751255874     2.903217681732    -0.801805487397    12.000000000000
         C           -1.614114295677     1.102202749194     1.619232313221    12.000000000000
         H            0.397986774074     1.715997797451     2.100111512055     1.007825032230
         H           -0.731656048325     3.060623881814     1.899987332003     1.007825032230
         C           -1.265374531930    -0.241078156550     0.954045378481    12.000000000000
         H           -1.860320885354     0.908028988375     2.669115921771     1.007825032230
         H           -2.507996128975     1.555448149344     1.172978351012     1.007825032230
         H           -1.303336599657    -1.114861855708     1.622104882049     1.007825032230
         SI          -2.983293865044    -0.968604008987    -0.050410161187    27.976926534650
         C            1.868989703475    -1.722702908795     0.282426470289    12.000000000000
         C            2.703652909708    -0.604943548204    -0.355834931884    12.000000000000
         C            2.028764070622     0.745526704389    -0.072257163279    12.000000000000
         H           -0.185364923011    -2.468927703119     0.217963394839     1.007825032230
         H            0.427229087909    -1.836246556240    -1.326812974570     1.007825032230
         H            1.861025990510    -1.612514541932     1.374549230086     1.007825032230
         H            2.284527983862    -2.709704515675     0.049794641424     1.007825032230
         C            4.150071172023    -0.605716356065     0.123111458646    12.000000000000
         H            2.718231815722    -0.769176379475    -1.440988392749     1.007825032230
         H            2.080030131915     0.955030608160     1.002147447687     1.007825032230
         H            2.559589220014     1.552134977118    -0.591058778317     1.007825032230
         C           -4.209399773930    -0.927989230116     1.384924265618    12.000000000000
         C           -3.474659999387     0.176064664715    -1.463845628917    12.000000000000
         C           -2.650091978799    -2.724342470945    -0.650516370158    12.000000000000
         H           -5.178309492466    -1.302671660330     1.023729733247     1.007825032230
         H           -3.887098570072    -1.572315673434     2.212955473727     1.007825032230
         H           -4.363266815550     0.086811876246     1.769115296771     1.007825032230
         H           -4.332069519700    -0.290782210573    -1.972027540116     1.007825032230
         H           -3.800146750262     1.162890825179    -1.116456128988     1.007825032230
         H           -2.680829470479     0.305331850742    -2.208226010545     1.007825032230
         H           -3.599994712483    -3.124128845232    -1.035989863383     1.007825032230
         H           -1.919795278487    -2.767707974806    -1.466525610106     1.007825032230
         H           -2.318129000328    -3.390572810072     0.155468893789     1.007825032230
         H            1.016578612502     1.693253666517    -2.457592582545     1.007825032230
         H            0.962584668901    -0.079320066621    -2.465471726696     1.007825032230
         H           -0.548433432325     0.858737388659    -2.456131081495     1.007825032230
         H           -1.425613980430     3.837026185670    -0.313625663360     1.007825032230
         H           -0.781513914962     3.149296631041    -1.812391151623     1.007825032230
         H           -2.005531686482     2.266236759734    -0.891144920492     1.007825032230
         C            5.150361966810    -0.673013573605    -0.762833096503    12.000000000000
         C            4.398630319707    -0.524417193070     1.610324760257    12.000000000000
         H            6.190782084693    -0.666117287933    -0.442525016650     1.007825032230
         H            4.958452951527    -0.739065619329    -1.833323456718     1.007825032230
         H            3.992651264389    -1.403545675069     2.131548470372     1.007825032230
         H            5.471389773917    -0.472479547656     1.822716685613     1.007825032230
         H            3.921395110149     0.360952932437     2.054653484466     1.007825032230

  Running in c1 symmetry.

  Rotational constants: A =      0.01869  B =      0.00728  C =      0.00651 [cm^-1]
  Rotational constants: A =    560.32594  B =    218.14434  C =    195.19174 [MHz]
  Nuclear repulsion = 1743.862086663723403

  Charge       = 1
  Multiplicity = 1
  Electrons    = 154
  Nalpha       = 77
  Nbeta        = 77

  ==> Algorithm <==

  SCF Algorithm Type is DISK_DF.
  DIIS enabled.
  MOM disabled.
  Fractional occupation disabled.
  Guess Type is SAD.
  Energy threshold   = 1.00e-08
  Density threshold  = 1.00e-06
  Integral threshold = 1.00e-12

  ==> Primary Basis <==

  Basis Set: DEF2-SVP
    Blend: DEF2-SVP
    Number of shells: 215
    Number of basis functions: 435
    Number of Cartesian functions: 454
    Spherical Harmonics?: true
    Max angular momentum: 2

  ==> DFT Potential <==

   => LibXC <=

    Version 7.1.2
    S. Lehtola, C. Steigemann, M. J. T. Oliveira, and M. A. L. Marques,  SoftwareX 7, 1–5 (2018) (10.1016/j.softx.2017.11.002)

   => Composite Functional: B3LYP-D3BJ2B <= 

    B3LYP-d3bj2b Hyb-GGA Exchange-Correlation Functional

    P. J. Stephens, F. J. Devlin, C. F. Chabalowski, and M. J. Frisch,  J. Phys. Chem. 98, 11623 (1994) (10.1021/j100096a001)

    Deriv               =              1
    GGA                 =           TRUE
    Meta                =          FALSE

    Exchange Hybrid     =           TRUE
    MP2 Hybrid          =          FALSE

   => Exchange Functionals <=

    0.0800   Slater exchange
    0.7200         Becke 88

   => Exact (HF) Exchange <=

    0.2000               HF 

   => Correlation Functionals <=

    0.1900   Vosko, Wilk & Nusair (VWN5_RPA)
    0.8100   Lee, Yang & Parr

   => LibXC Density Thresholds  <==

    XC_HYB_GGA_XC_B3LYP:  1.00E-15 

   => Molecular Quadrature <=

    Radial Scheme          =       TREUTLER
    Pruning Scheme         =           NONE
    Nuclear Scheme         =       TREUTLER

    Blocking Scheme        =         OCTREE
    BS radius alpha        =              1
    Pruning alpha          =              1
    Radial Points          =             75
    Spherical Points       =            302
    Total Points           =        1057514
    Total Blocks           =           7309
    Max Points             =            256
    Max Functions          =            331
    Weights Tolerance      =       1.00E-15

   => Loading Basis Set <=

    Name: (DEF2-SVP AUX)
    Role: JKFIT
    Keyword: DF_BASIS_SCF
    atoms 1-6, 8-9, 12, 17-19, 24, 28-30, 46-47       entry C          line   198 file /Users/hoyoun/micromamba/envs/psi4env/share/psi4/basis/def2-universal-jkfit.gbs 
    atoms 7, 10-11, 13-15, 20-23, 25-27, 31-45, 48-52 entry H          line    18 file /Users/hoyoun/micromamba/envs/psi4env/share/psi4/basis/def2-universal-jkfit.gbs 
    atoms 16                                          entry SI         line   737 file /Users/hoyoun/micromamba/envs/psi4env/share/psi4/basis/def2-universal-jkfit.gbs 

  ==> Integral Setup <==

  ==> DiskDFJK: Density-Fitted J/K Matrices <==

    J tasked:                  Yes
    K tasked:                  Yes
    wK tasked:                  No
    OpenMP threads:              8
    Integrals threads:           8
    Memory [MiB]:             1304
    Algorithm:                Disk
    Integral Cache:           NONE
    Schwarz Cutoff:          1E-12
    Fitting Condition:       1E-10

   => Auxiliary Basis Set <=

  Basis Set: (DEF2-SVP AUX)
    Blend: DEF2-UNIVERSAL-JKFIT
    Number of shells: 686
    Number of basis functions: 2072
    Number of Cartesian functions: 2417
    Spherical Harmonics?: true
    Max angular momentum: 4

  Cached 12.5% of DFT collocation blocks in 0.790 [GiB].

  Minimum eigenvalue in the overlap matrix is 6.0000892872E-04.
  Reciprocal condition number of the overlap matrix is 7.3687722821E-05.
    Using symmetric orthogonalization.

  ==> Pre-Iterations <==

  SCF Guess: Superposition of Atomic Densities via on-the-fly atomic UHF (no occupation information).

   -------------------------
    Irrep   Nso     Nmo    
   -------------------------
     A        435     435 
   -------------------------
    Total     435     435
   -------------------------

  ==> Iterations <==

                           Total Energy        Delta E     RMS |[F,P]|

   @DF-RKS iter SAD:  -993.73607629288790   -9.93736e+02   0.00000e+00 
   @DF-RKS iter   1:  -993.00904711455905    7.27029e-01   3.91284e-03 ADIIS/DIIS
   @DF-RKS iter   2:  -992.36462556407253    6.44422e-01   4.52257e-03 ADIIS/DIIS
   @DF-RKS iter   3:  -994.55510212423940   -2.19048e+00   6.23596e-04 ADIIS/DIIS
   @DF-RKS iter   4:  -994.58325045612582   -2.81483e-02   3.33436e-04 ADIIS/DIIS
   @DF-RKS iter   5:  -994.59363879279078   -1.03883e-02   9.29451e-05 DIIS
   @DF-RKS iter   6:  -994.59442450662198   -7.85714e-04   2.76300e-05 DIIS
   @DF-RKS iter   7:  -994.59449775752682   -7.32509e-05   3.86773e-06 DIIS
   @DF-RKS iter   8:  -994.59449892031489   -1.16279e-06   1.99604e-06 DIIS
   @DF-RKS iter   9:  -994.59449929348443   -3.73170e-07   4.95506e-07 DIIS
   @DF-RKS iter  10:  -994.59449931402639   -2.05420e-08   2.08375e-07 DIIS
   @DF-RKS iter  11:  -994.59449931833308   -4.30668e-09   5.54835e-08 DIIS
  Energy and wave function converged.


  ==> Post-Iterations <==

   Electrons on quadrature grid:
      Ntotal   =  154.0000843078 ; deviation = 8.431e-05 

    Orbital Energies [Eh]
    ---------------------

    Doubly Occupied:                                                      

       1A    -66.275862     2A    -10.404333     3A    -10.353087  
       4A    -10.348717     5A    -10.339032     6A    -10.328022  
       7A    -10.320761     8A    -10.317278     9A    -10.316116  
      10A    -10.315910    11A    -10.310020    12A    -10.308913  
      13A    -10.306249    14A    -10.306220    15A    -10.302835  
      16A    -10.293278    17A    -10.292445    18A    -10.278729  
      19A    -10.270174    20A     -5.439337    21A     -3.804392  
      22A     -3.799460    23A     -3.799361    24A     -1.014382  
      25A     -0.946733    26A     -0.929727    27A     -0.905745  
      28A     -0.870907    29A     -0.848699    30A     -0.846905  
      31A     -0.817459    32A     -0.812945    33A     -0.809400  
      34A     -0.801008    35A     -0.776580    36A     -0.757683  
      37A     -0.738698    38A     -0.732174    39A     -0.688438  
      40A     -0.643506    41A     -0.629082    42A     -0.624844  
      43A     -0.619907    44A     -0.604638    45A     -0.587985  
      46A     -0.583923    47A     -0.577440    48A     -0.562235  
      49A     -0.559449    50A     -0.552146    51A     -0.549048  
      52A     -0.547015    53A     -0.545048    54A     -0.542421  
      55A     -0.533696    56A     -0.527931    57A     -0.522921  
      58A     -0.520725    59A     -0.517814    60A     -0.510425  
      61A     -0.508903    62A     -0.501138    63A     -0.500222  
      64A     -0.496442    65A     -0.488456    66A     -0.476032  
      67A     -0.470353    68A     -0.466708    69A     -0.453082  
      70A     -0.452275    71A     -0.449446    72A     -0.447472  
      73A     -0.443592    74A     -0.436443    75A     -0.434745  
      76A     -0.420560    77A     -0.348517  

    Virtual:                                                              

      78A     -0.234390    79A     -0.093799    80A     -0.085411  
      81A     -0.084281    82A     -0.070907    83A     -0.063400  
      84A     -0.060153    85A     -0.048267    86A     -0.044938  
      87A     -0.037569    88A     -0.031054    89A     -0.025071  
      90A     -0.019386    91A     -0.016646    92A     -0.014187  
      93A     -0.006140    94A     -0.001324    95A      0.002662  
      96A      0.006677    97A      0.009483    98A      0.014230  
      99A      0.016838   100A      0.019165   101A      0.023012  
     102A      0.024451   103A      0.032905   104A      0.035705  
     105A      0.038461   106A      0.043170   107A      0.047803  
     108A      0.053628   109A      0.054366   110A      0.063051  
     111A      0.066419   112A      0.070088   113A      0.073173  
     114A      0.084200   115A      0.086117   116A      0.087033  
     117A      0.089564   118A      0.103214   119A      0.105360  
     120A      0.112137   121A      0.114194   122A      0.122235  
     123A      0.127258   124A      0.141087   125A      0.145782  
     126A      0.154934   127A      0.156172   128A      0.165830  
     129A      0.178972   130A      0.188979   131A      0.204530  
     132A      0.221389   133A      0.242617   134A      0.250649  
     135A      0.262263   136A      0.266311   137A      0.277593  
     138A      0.281098   139A      0.291099   140A      0.300429  
     141A      0.304530   142A      0.315667   143A      0.321951  
     144A      0.331103   145A      0.335463   146A      0.350478  
     147A      0.354475   148A      0.358532   149A      0.371602  
     150A      0.394490   151A      0.404147   152A      0.405841  
     153A      0.414492   154A      0.420366   155A      0.431896  
     156A      0.437862   157A      0.442167   158A      0.446912  
     159A      0.456219   160A      0.460087   161A      0.461414  
     162A      0.464523   163A      0.468981   164A      0.475716  
     165A      0.477970   166A      0.481134   167A      0.489078  
     168A      0.494282   169A      0.501417   170A      0.503493  
     171A      0.513490   172A      0.517867   173A      0.519068  
     174A      0.521832   175A      0.523938   176A      0.527007  
     177A      0.532451   178A      0.535872   179A      0.538594  
     180A      0.541172   181A      0.546089   182A      0.548766  
     183A      0.549740   184A      0.555423   185A      0.557613  
     186A      0.559754   187A      0.561636   188A      0.566669  
     189A      0.570386   190A      0.571505   191A      0.575376  
     192A      0.582235   193A      0.585180   194A      0.587040  
     195A      0.589797   196A      0.594913   197A      0.604860  
     198A      0.605655   199A      0.611603   200A      0.614902  
     201A      0.617546   202A      0.623174   203A      0.625807  
     204A      0.630438   205A      0.633057   206A      0.637599  
     207A      0.643930   208A      0.645042   209A      0.650738  
     210A      0.665592   211A      0.670911   212A      0.676180  
     213A      0.678587   214A      0.687027   215A      0.703443  
     216A      0.709907   217A      0.715918   218A      0.731729  
     219A      0.736526   220A      0.753693   221A      0.768319  
     222A      0.782372   223A      0.784388   224A      0.788051  
     225A      0.796849   226A      0.806789   227A      0.834312  
     228A      0.853460   229A      0.856549   230A      0.896094  
     231A      0.900933   232A      0.920471   233A      0.927379  
     234A      0.940787   235A      0.948011   236A      0.981389  
     237A      0.995361   238A      1.004322   239A      1.020527  
     240A      1.032105   241A      1.038205   242A      1.051982  
     243A      1.064716   244A      1.076781   245A      1.097427  
     246A      1.109647   247A      1.117932   248A      1.134944  
     249A      1.148574   250A      1.156292   251A      1.165141  
     252A      1.186192   253A      1.189233   254A      1.216582  
     255A      1.239419   256A      1.252201   257A      1.261671  
     258A      1.270291   259A      1.287167   260A      1.322639  
     261A      1.325687   262A      1.332949   263A      1.341851  
     264A      1.368426   265A      1.370284   266A      1.391341  
     267A      1.403580   268A      1.416154   269A      1.423794  
     270A      1.426208   271A      1.429011   272A      1.431897  
     273A      1.444206   274A      1.454491   275A      1.456385  
     276A      1.488872   277A      1.525731   278A      1.529424  
     279A      1.533690   280A      1.548369   281A      1.557562  
     282A      1.572113   283A      1.578573   284A      1.590826  
     285A      1.595697   286A      1.600038   287A      1.610565  
     288A      1.612584   289A      1.620654   290A      1.623713  
     291A      1.631716   292A      1.636093   293A      1.646188  
     294A      1.651538   295A      1.654732   296A      1.660023  
     297A      1.669255   298A      1.672066   299A      1.674577  
     300A      1.679457   301A      1.686508   302A      1.686624  
     303A      1.696975   304A      1.701400   305A      1.712420  
     306A      1.718236   307A      1.721163   308A      1.727454  
     309A      1.731858   310A      1.733745   311A      1.736934  
     312A      1.749212   313A      1.751514   314A      1.759097  
     315A      1.773199   316A      1.776887   317A      1.779162  
     318A      1.784343   319A      1.787291   320A      1.793378  
     321A      1.797006   322A      1.805544   323A      1.811711  
     324A      1.814683   325A      1.818427   326A      1.828910  
     327A      1.831370   328A      1.841267   329A      1.846792  
     330A      1.849151   331A      1.862631   332A      1.867150  
     333A      1.872628   334A      1.875392   335A      1.884404  
     336A      1.890713   337A      1.897813   338A      1.904286  
     339A      1.909278   340A      1.911308   341A      1.913673  
     342A      1.942421   343A      1.960346   344A      1.971193  
     345A      1.980763   346A      1.985732   347A      1.989613  
     348A      2.026271   349A      2.029653   350A      2.030411  
     351A      2.042796   352A      2.071992   353A      2.080067  
     354A      2.091946   355A      2.108040   356A      2.128511  
     357A      2.139149   358A      2.143787   359A      2.148787  
     360A      2.156499   361A      2.168564   362A      2.180055  
     363A      2.200544   364A      2.205282   365A      2.222547  
     366A      2.247468   367A      2.260985   368A      2.267106  
     369A      2.271365   370A      2.293687   371A      2.294425  
     372A      2.307656   373A      2.312703   374A      2.321434  
     375A      2.325992   376A      2.329375   377A      2.338889  
     378A      2.346852   379A      2.353368   380A      2.359077  
     381A      2.360431   382A      2.378957   383A      2.405716  
     384A      2.419937   385A      2.423841   386A      2.433074  
     387A      2.448117   388A      2.463896   389A      2.467240  
     390A      2.484721   391A      2.499918   392A      2.513527  
     393A      2.516995   394A      2.541585   395A      2.550926  
     396A      2.552331   397A      2.555902   398A      2.575267  
     399A      2.579946   400A      2.582073   401A      2.613950  
     402A      2.642879   403A      2.653357   404A      2.683679  
     405A      2.686495   406A      2.726747   407A      2.738209  
     408A      2.745644   409A      2.756504   410A      2.780169  
     411A      2.783402   412A      2.791957   413A      2.800445  
     414A      2.808799   415A      2.814212   416A      2.821448  
     417A      2.826721   418A      2.833682   419A      2.842370  
     420A      2.846201   421A      2.854616   422A      2.861333  
     423A      2.877833   424A      2.882860   425A      2.894122  
     426A      2.901244   427A      2.923843   428A      2.931028  
     429A      2.945793   430A      2.949257   431A      2.963303  
     432A      2.982542   433A      3.024743   434A      3.087134  
     435A      3.151191  

    Final Occupation by Irrep:
              A 
    DOCC [    77 ]
    NA   [    77 ]
    NB   [    77 ]

  @DF-RKS Final Energy:  -994.59449931833308

   => Energetics <=

    Nuclear Repulsion Energy =           1743.8620866637234030
    One-Electron Energy =               -4797.2823058689764366
    Two-Electron Energy =                2164.6004831073987589
    DFT Exchange-Correlation Energy =    -105.6594093428704042
    Empirical Dispersion Energy =          -0.1153538776084017
    VV10 Nonlocal Energy =                  0.0000000000000000
    Total Energy =                       -994.5944993183330780

Computation Completed


Properties will be evaluated at   0.000000,   0.000000,   0.000000 [a0]

Properties computed using the SCF density matrix


 Multipole Moments:

 ------------------------------------------------------------------------------------
     Multipole            Electronic (a.u.)      Nuclear  (a.u.)        Total (a.u.)
 ------------------------------------------------------------------------------------

 L = 1.  Multiply by 2.5417464519 to convert [e a0] to [Debye]
 Dipole X            :          8.1672205           -9.8076841           -1.6404636
 Dipole Y            :         14.6251118          -15.2337687           -0.6086569
 Dipole Z            :         -4.3568312            4.4590590            0.1022278
 Magnitude           :                                                    1.7527221

 ------------------------------------------------------------------------------------

*** tstop() called on choehoyun-ui-MacBookAir.local at Mon Aug 10 19:42:47 2026
Module time:
	user time   =     462.84 seconds =       7.71 minutes
	system time =       8.73 seconds =       0.15 minutes
	total time  =         75 seconds =       1.25 minutes
Total time:
	user time   =     462.84 seconds =       7.71 minutes
	system time =       8.73 seconds =       0.15 minutes
	total time  =         75 seconds =       1.25 minutes

    Psi4 stopped on: Monday, 10 August 2026 07:42PM
    Psi4 wall time for execution: 0:01:15.09

*** Psi4 exiting successfully. Buy a developer a beer!
