
    -----------------------------------------------------------------------
          Psi4: An Open-Source Ab Initio Electronic Structure Package
                               Psi4 1.11 release

                         Git: Rev {} zzzzzzz 


    D. G. A. Smith, L. A. Burns, A. C. Simmonett, R. M. Parrish,
    M. C. Schieber, R. Galvelis, P. Kraus, H. Kruse, R. Di Remigio,
    A. Alenaizan, A. M. James, S. Lehtola, J. P. Misiewicz, M. Scheurer,
    R. A. Shaw, J. B. Schriber, Y. Xie, Z. L. Glick, D. A. Sirianni,
    J. S. O'Brien, J. M. Waldrop, A. Kumar, E. G. Hohenstein,
    B. P. Pritchard, B. R. Brooks, H. F. Schaefer III, A. Yu. Sokolov,
    K. Patkowski, A. E. DePrince III, U. Bozkaya, R. A. King,
    F. A. Evangelista, J. M. Turney, T. D. Crawford, C. D. Sherrill,
    J. Chem. Phys. 152(18) 184108 (2020). https://doi.org/10.1063/5.0006002

                            Additional Code Authors
    E. T. Seidl, C. L. Janssen, E. F. Valeev, M. L. Leininger,
    J. F. Gonthier, R. M. Richard, H. R. McAlexander, M. Saitow, X. Wang,
    P. Verma, M. H. Lechner, A. Jiang, S. Behnle, A. G. Heide,
    M. F. Herbst, D. L. Poole, T. Győri, E. C. Mitchell, J. P. Pederson,
    and A. M. Wallace

             Previous Authors, Complete List of Code Contributors,
                       and Citations for Specific Modules
    https://github.com/psi4/psi4/blob/master/codemeta.json
    https://github.com/psi4/psi4/graphs/contributors
    https://psicode.org/psi4manual/master/introduction.html#citing-psifour

    -----------------------------------------------------------------------


    Psi4 started on: Monday, 10 August 2026 07:04PM

    Process ID: 77625
    Host:       choehoyun-ui-MacBookAir.local
    PSIDATADIR: /Users/hoyoun/micromamba/envs/psi4env/share/psi4
    Memory:     500.0 MiB
    Threads:    8
    Addons:     a̶d̶c̶c̶, a̶m̶b̶i̶t̶, b̶s̶e̶, c̶c̶t̶3̶, c̶f̶o̶u̶r̶, c̶h̶e̶m̶p̶s̶2̶, c̶p̶p̶e̶, d̶d̶x̶, dftd3,
                d̶f̶t̶d̶4̶, dkh, ecpint, einsums, f̶o̶r̶t̶e̶, gauxc, g̶c̶p̶, g̶d̶m̶a̶,
                g̶e̶o̶m̶e̶t̶r̶i̶c̶, g̶p̶u̶_̶d̶f̶c̶c̶, i̶n̶t̶e̶g̶r̶a̶t̶o̶r̶x̶x̶, i̶p̶i̶,
                l̶i̶b̶e̶f̶p̶, m̶d̶i̶, m̶p̶2̶d̶, m̶r̶c̶c̶, ooo, o̶p̶e̶n̶f̶e̶r̶m̶i̶o̶n̶p̶s̶i̶4̶,
                pcmsolver, p̶s̶i̶4̶f̶o̶c̶k̶c̶i̶, p̶s̶i̶x̶a̶s̶, p̶y̶e̶i̶n̶s̶u̶m̶s̶, r̶e̶s̶p̶,
                s̶i̶m̶i̶n̶t̶, s̶n̶s̶m̶p̶2̶, v̶2̶r̶d̶m̶_̶c̶a̶s̶s̶c̶f̶

  ==> Input File <==

--------------------------------------------------------------------------
memory 3 GB
molecule mol {
0 1
N -1.22947598621295 -0.27751687466223 0.40334828560223
C 0.08065282412392 -0.09684379302565 -0.16928559838273
C 1.06862391830215 -0.71245491464323 0.81338296426636
O 0.80534089898356 -0.72693649103780 2.01627544418406
C 0.34670593709152 1.39973308929281 -0.40170992073196
O 1.56064981615243 1.48270095495669 -1.14746866711543
C 0.42912212552118 2.20317584237527 0.88017041017282
H -1.25250152445959 -0.46742943221146 1.39345152053884
H 0.10559464661007 -0.58535846850778 -1.14261570696197
H -0.49224261897860 1.74641239114794 -1.01113577669480
H 1.74513652885507 2.41557944977160 -1.29330013555181
H 0.54180299115685 3.26205936612102 0.64522262497668
H 1.27842128732419 1.88502858335935 1.48119134271945
H -0.47851908701441 2.08595848168166 1.46900266031753
N 2.22538470369266 -1.20704681677576 0.32479992141480
H 2.80573303337616 -1.62391066776602 1.03617630359860
C 2.57503943869190 -1.42691013889289 -1.06766448713125
H 2.33760511151877 -0.54929418670172 -1.65678086381094
H 3.64767378862248 -1.58965290435687 -1.12364403338103
H 2.07207981962100 -2.30133034207147 -1.48174329696995
C -2.34290391199368 -0.32162887166022 -0.37314233311859
O -2.30324654185711 -0.15226945051682 -1.58707787316916
C -3.63227369456888 -0.59360207484946 0.36320498764468
H -4.05311050769763 -1.52421637977224 -0.01078959939482
H -4.33646915994628 0.20205104404341 0.13360580683964
H -3.50357483690928 -0.66431938715433 1.44027101984896
units angstrom
no_reorient
no_com
}
set basis def2-SVP
set scf_type df
set freeze_core true
set e_convergence 8
energy('b3lyp-d3bj')
--------------------------------------------------------------------------

  Memory set to   2.794 GiB by Python driver.

Scratch directory: /Users/hoyoun/Documents/Yonsei_AX_Camp/(진짜_이게_최종)/calibration/dft_work/_scratch/THR_xal/
   => Libint2 <=

    Primary   basis highest AM E, G, H:  7, 6, 3
    Auxiliary basis highest AM E, G, H:  7, 7, 4
    Onebody   basis highest AM E, G, H:  -, -, -
    Solid Harmonics ordering:            Gaussian

*** tstart() called on choehoyun-ui-MacBookAir.local
*** at Mon Aug 10 19:04:37 2026

   => Loading Basis Set <=

    Name: DEF2-SVP
    Role: ORBITAL
    Keyword: BASIS
    atoms 1, 15                  entry N          line   110 file /Users/hoyoun/micromamba/envs/psi4env/share/psi4/basis/def2-svp.gbs 
    atoms 2-3, 5, 7, 17, 21, 23  entry C          line    90 file /Users/hoyoun/micromamba/envs/psi4env/share/psi4/basis/def2-svp.gbs 
    atoms 4, 6, 22               entry O          line   130 file /Users/hoyoun/micromamba/envs/psi4env/share/psi4/basis/def2-svp.gbs 
    atoms 8-14, 16, 18-20, 24-26 entry H          line    15 file /Users/hoyoun/micromamba/envs/psi4env/share/psi4/basis/def2-svp.gbs 

   => B3LYP-D3(BJ): Empirical Dispersion <=

    Grimme's -D3 (BJ-damping) Dispersion Correction
    Grimme S.; Ehrlich S.; Goerigk L. (2011), J. Comput. Chem., 32: 1456

        s6 =       1.000000
        s8 =       1.988900
        a1 =       0.398100
        a2 =       4.421100


         ---------------------------------------------------------
                                   SCF
               by Justin Turney, Rob Parrish, Andy Simmonett
                          and Daniel G. A. Smith
                              RKS Reference
                        8 Threads,   2861 MiB Core
         ---------------------------------------------------------

  ==> Geometry <==

    Molecular point group: c1
    Full point group: C1

    Geometry (in Angstrom), charge = 0, multiplicity = 1:

       Center              X                  Y                   Z               Mass       
    ------------   -----------------  -----------------  -----------------  -----------------
         N           -1.229475986213    -0.277516874662     0.403348285602    14.003074004430
         C            0.080652824124    -0.096843793026    -0.169285598383    12.000000000000
         C            1.068623918302    -0.712454914643     0.813382964266    12.000000000000
         O            0.805340898984    -0.726936491038     2.016275444184    15.994914619570
         C            0.346705937092     1.399733089293    -0.401709920732    12.000000000000
         O            1.560649816152     1.482700954957    -1.147468667115    15.994914619570
         C            0.429122125521     2.203175842375     0.880170410173    12.000000000000
         H           -1.252501524460    -0.467429432211     1.393451520539     1.007825032230
         H            0.105594646610    -0.585358468508    -1.142615706962     1.007825032230
         H           -0.492242618979     1.746412391148    -1.011135776695     1.007825032230
         H            1.745136528855     2.415579449772    -1.293300135552     1.007825032230
         H            0.541802991157     3.262059366121     0.645222624977     1.007825032230
         H            1.278421287324     1.885028583359     1.481191342719     1.007825032230
         H           -0.478519087014     2.085958481682     1.469002660318     1.007825032230
         N            2.225384703693    -1.207046816776     0.324799921415    14.003074004430
         H            2.805733033376    -1.623910667766     1.036176303599     1.007825032230
         C            2.575039438692    -1.426910138893    -1.067664487131    12.000000000000
         H            2.337605111519    -0.549294186702    -1.656780863811     1.007825032230
         H            3.647673788622    -1.589652904357    -1.123644033381     1.007825032230
         H            2.072079819621    -2.301330342071    -1.481743296970     1.007825032230
         C           -2.342903911994    -0.321628871660    -0.373142333119    12.000000000000
         O           -2.303246541857    -0.152269450517    -1.587077873169    15.994914619570
         C           -3.632273694569    -0.593602074849     0.363204987645    12.000000000000
         H           -4.053110507698    -1.524216379772    -0.010789599395     1.007825032230
         H           -4.336469159946     0.202051044043     0.133605806840     1.007825032230
         H           -3.503574836909    -0.664319387154     1.440271019849     1.007825032230

  Running in c1 symmetry.

  Rotational constants: A =      0.04099  B =      0.02080  C =      0.01945 [cm^-1]
  Rotational constants: A =   1228.76985  B =    623.67502  C =    583.23565 [MHz]
  Nuclear repulsion =  778.022350054268600

  Charge       = 0
  Multiplicity = 1
  Electrons    = 94
  Nalpha       = 47
  Nbeta        = 47

  ==> Algorithm <==

  SCF Algorithm Type is DF.
  DIIS enabled.
  MOM disabled.
  Fractional occupation disabled.
  Guess Type is SAD.
  Energy threshold   = 1.00e-08
  Density threshold  = 1.00e-06
  Integral threshold = 1.00e-12

  ==> Primary Basis <==

  Basis Set: DEF2-SVP
    Blend: DEF2-SVP
    Number of shells: 114
    Number of basis functions: 238
    Number of Cartesian functions: 250
    Spherical Harmonics?: true
    Max angular momentum: 2

  ==> DFT Potential <==

   => LibXC <=

    Version 7.1.2
    S. Lehtola, C. Steigemann, M. J. T. Oliveira, and M. A. L. Marques,  SoftwareX 7, 1–5 (2018) (10.1016/j.softx.2017.11.002)

   => Composite Functional: B3LYP-D3BJ2B <= 

    B3LYP-d3bj2b Hyb-GGA Exchange-Correlation Functional

    P. J. Stephens, F. J. Devlin, C. F. Chabalowski, and M. J. Frisch,  J. Phys. Chem. 98, 11623 (1994) (10.1021/j100096a001)

    Deriv               =              1
    GGA                 =           TRUE
    Meta                =          FALSE

    Exchange Hybrid     =           TRUE
    MP2 Hybrid          =          FALSE

   => Exchange Functionals <=

    0.0800   Slater exchange
    0.7200         Becke 88

   => Exact (HF) Exchange <=

    0.2000               HF 

   => Correlation Functionals <=

    0.1900   Vosko, Wilk & Nusair (VWN5_RPA)
    0.8100   Lee, Yang & Parr

   => LibXC Density Thresholds  <==

    XC_HYB_GGA_XC_B3LYP:  1.00E-15 

   => Molecular Quadrature <=

    Radial Scheme          =       TREUTLER
    Pruning Scheme         =           NONE
    Nuclear Scheme         =       TREUTLER

    Blocking Scheme        =         OCTREE
    BS radius alpha        =              1
    Pruning alpha          =              1
    Radial Points          =             75
    Spherical Points       =            302
    Total Points           =         539908
    Total Blocks           =           3909
    Max Points             =            256
    Max Functions          =            215
    Weights Tolerance      =       1.00E-15

   => Loading Basis Set <=

    Name: (DEF2-SVP AUX)
    Role: JKFIT
    Keyword: DF_BASIS_SCF
    atoms 1, 15                  entry N          line   258 file /Users/hoyoun/micromamba/envs/psi4env/share/psi4/basis/def2-universal-jkfit.gbs 
    atoms 2-3, 5, 7, 17, 21, 23  entry C          line   198 file /Users/hoyoun/micromamba/envs/psi4env/share/psi4/basis/def2-universal-jkfit.gbs 
    atoms 4, 6, 22               entry O          line   318 file /Users/hoyoun/micromamba/envs/psi4env/share/psi4/basis/def2-universal-jkfit.gbs 
    atoms 8-14, 16, 18-20, 24-26 entry H          line    18 file /Users/hoyoun/micromamba/envs/psi4env/share/psi4/basis/def2-universal-jkfit.gbs 

  ==> Integral Setup <==

  DFHelper Memory: AOs need 0.454 GiB; user supplied 0.454 GiB. 
  SCF_SUBTYPE=INCORE selected. In-core MEM_DF algorithm will be used.
  Using in-core AOs.

  ==> MemDFJK: Density-Fitted J/K Matrices <==

    J tasked:                   Yes
    K tasked:                   Yes
    wK tasked:                   No
    OpenMP threads:               8
    Memory [MiB]:               464
    Algorithm:                 Core
    Schwarz Cutoff:           1E-12
    Mask sparsity (%):      12.5662
    Fitting Condition:        1E-10

   => Auxiliary Basis Set <=

  Basis Set: (DEF2-SVP AUX)
    Blend: DEF2-UNIVERSAL-JKFIT
    Number of shells: 384
    Number of basis functions: 1162
    Number of Cartesian functions: 1368
    Spherical Harmonics?: true
    Max angular momentum: 4

  Cached 50.0% of DFT collocation blocks in 1.093 [GiB].

  Minimum eigenvalue in the overlap matrix is 1.1028640801E-03.
  Reciprocal condition number of the overlap matrix is 1.6367509132E-04.
    Using symmetric orthogonalization.

  ==> Pre-Iterations <==

  SCF Guess: Superposition of Atomic Densities via on-the-fly atomic UHF (no occupation information).

   -------------------------
    Irrep   Nso     Nmo    
   -------------------------
     A        238     238 
   -------------------------
    Total     238     238
   -------------------------

  ==> Iterations <==

                           Total Energy        Delta E     RMS |[F,P]|

   @DF-RKS iter SAD:  -609.21215337188607   -6.09212e+02   0.00000e+00 
   @DF-RKS iter   1:  -609.18359807733611    2.85553e-02   5.48103e-03 ADIIS/DIIS
   @DF-RKS iter   2:  -608.83294415745399    3.50654e-01   6.72977e-03 ADIIS/DIIS
   @DF-RKS iter   3:  -609.94021247073090   -1.10727e+00   1.26184e-03 ADIIS/DIIS
   @DF-RKS iter   4:  -609.97286417683165   -3.26517e-02   4.34734e-04 ADIIS/DIIS
   @DF-RKS iter   5:  -609.97683193486216   -3.96776e-03   1.39853e-04 ADIIS/DIIS
   @DF-RKS iter   6:  -609.97729690555639   -4.64971e-04   2.77606e-05 DIIS
   @DF-RKS iter   7:  -609.97731420245088   -1.72969e-05   7.76654e-06 DIIS
   @DF-RKS iter   8:  -609.97731545617148   -1.25372e-06   3.36633e-06 DIIS
   @DF-RKS iter   9:  -609.97731565956371   -2.03392e-07   1.60547e-06 DIIS
   @DF-RKS iter  10:  -609.97731571778070   -5.82170e-08   3.12555e-07 DIIS
   @DF-RKS iter  11:  -609.97731571997724   -2.19654e-09   9.48375e-08 DIIS
  Energy and wave function converged.


  ==> Post-Iterations <==

   Electrons on quadrature grid:
      Ntotal   =   93.9998053821 ; deviation = -1.946e-04 

    Orbital Energies [Eh]
    ---------------------

    Doubly Occupied:                                                      

       1A    -19.139494     2A    -19.102106     3A    -19.086569  
       4A    -14.357448     5A    -14.344453     6A    -10.287091  
       7A    -10.277662     8A    -10.239715     9A    -10.226573  
      10A    -10.222528    11A    -10.187057    12A    -10.178493  
      13A     -1.032515    14A     -1.017311    15A     -1.013105  
      16A     -0.918961    17A     -0.911533    18A     -0.778734  
      19A     -0.733595    20A     -0.711382    21A     -0.695885  
      22A     -0.626675    23A     -0.595612    24A     -0.566960  
      25A     -0.524898    26A     -0.499963    27A     -0.495742  
      28A     -0.482399    29A     -0.469571    30A     -0.456389  
      31A     -0.449751    32A     -0.441445    33A     -0.430541  
      34A     -0.406958    35A     -0.401571    36A     -0.395376  
      37A     -0.392439    38A     -0.386143    39A     -0.378675  
      40A     -0.370493    41A     -0.354615    42A     -0.333398  
      43A     -0.285818    44A     -0.266058    45A     -0.261309  
      46A     -0.247774    47A     -0.244969  

    Virtual:                                                              

      48A      0.009770    49A      0.032068    50A      0.044930  
      51A      0.059121    52A      0.061959    53A      0.086436  
      54A      0.101154    55A      0.105840    56A      0.125436  
      57A      0.127303    58A      0.132995    59A      0.146529  
      60A      0.151289    61A      0.155974    62A      0.165606  
      63A      0.169340    64A      0.185197    65A      0.209585  
      66A      0.214840    67A      0.223582    68A      0.243824  
      69A      0.250642    70A      0.282552    71A      0.302817  
      72A      0.320298    73A      0.373834    74A      0.390814  
      75A      0.407583    76A      0.427579    77A      0.439152  
      78A      0.447211    79A      0.457257    80A      0.467370  
      81A      0.477071    82A      0.484840    83A      0.498886  
      84A      0.517969    85A      0.539625    86A      0.554406  
      87A      0.564943    88A      0.592458    89A      0.600625  
      90A      0.608242    91A      0.616905    92A      0.623608  
      93A      0.636113    94A      0.644355    95A      0.654875  
      96A      0.658131    97A      0.665479    98A      0.669281  
      99A      0.671989   100A      0.677107   101A      0.683216  
     102A      0.685759   103A      0.691773   104A      0.695288  
     105A      0.702762   106A      0.708752   107A      0.719223  
     108A      0.720383   109A      0.741409   110A      0.757012  
     111A      0.776768   112A      0.818758   113A      0.827585  
     114A      0.858209   115A      0.898367   116A      0.923553  
     117A      0.938284   118A      0.944396   119A      0.978376  
     120A      0.987989   121A      1.037042   122A      1.048361  
     123A      1.078005   124A      1.088359   125A      1.118111  
     126A      1.131891   127A      1.140391   128A      1.165208  
     129A      1.187175   130A      1.211192   131A      1.224555  
     132A      1.241372   133A      1.253810   134A      1.272667  
     135A      1.309708   136A      1.333596   137A      1.354979  
     138A      1.393695   139A      1.408843   140A      1.436416  
     141A      1.446628   142A      1.469275   143A      1.488691  
     144A      1.525370   145A      1.541024   146A      1.552266  
     147A      1.561548   148A      1.580589   149A      1.588640  
     150A      1.620071   151A      1.635254   152A      1.648581  
     153A      1.681111   154A      1.707918   155A      1.736984  
     156A      1.738460   157A      1.776473   158A      1.780177  
     159A      1.788573   160A      1.796806   161A      1.800832  
     162A      1.816724   163A      1.822359   164A      1.833108  
     165A      1.840688   166A      1.851310   167A      1.864971  
     168A      1.881595   169A      1.895129   170A      1.909131  
     171A      1.915562   172A      1.955498   173A      1.969149  
     174A      1.985084   175A      1.998285   176A      2.019221  
     177A      2.028220   178A      2.040816   179A      2.057102  
     180A      2.070993   181A      2.081577   182A      2.088934  
     183A      2.136687   184A      2.149341   185A      2.196332  
     186A      2.221606   187A      2.226237   188A      2.256886  
     189A      2.288684   190A      2.311016   191A      2.332053  
     192A      2.365260   193A      2.384970   194A      2.405869  
     195A      2.417976   196A      2.430534   197A      2.470951  
     198A      2.480112   199A      2.535801   200A      2.541521  
     201A      2.559951   202A      2.575770   203A      2.584613  
     204A      2.630394   205A      2.653303   206A      2.688079  
     207A      2.705781   208A      2.742121   209A      2.752530  
     210A      2.768730   211A      2.780275   212A      2.798993  
     213A      2.822024   214A      2.873571   215A      2.892756  
     216A      2.907929   217A      2.918375   218A      2.933329  
     219A      2.948756   220A      2.956850   221A      2.970185  
     222A      2.979373   223A      3.008980   224A      3.031978  
     225A      3.052809   226A      3.077055   227A      3.132936  
     228A      3.152317   229A      3.190324   230A      3.207561  
     231A      3.314285   232A      3.383663   233A      3.402065  
     234A      3.466942   235A      3.565771   236A      3.673707  
     237A      3.678141   238A      3.783419  

    Final Occupation by Irrep:
              A 
    DOCC [    47 ]
    NA   [    47 ]
    NB   [    47 ]

  @DF-RKS Final Energy:  -609.97731571997724

   => Energetics <=

    Nuclear Repulsion Energy =            778.0223500542685997
    One-Electron Energy =               -2375.2773535246969914
    Two-Electron Energy =                1054.3945844608656444
    DFT Exchange-Correlation Energy =     -67.0734592563462684
    Empirical Dispersion Energy =          -0.0434374540680719
    VV10 Nonlocal Energy =                  0.0000000000000000
    Total Energy =                       -609.9773157199771276

Computation Completed


Properties will be evaluated at   0.000000,   0.000000,   0.000000 [a0]

Properties computed using the SCF density matrix


 Multipole Moments:

 ------------------------------------------------------------------------------------
     Multipole            Electronic (a.u.)      Nuclear  (a.u.)        Total (a.u.)
 ------------------------------------------------------------------------------------

 L = 1.  Multiply by 2.5417464519 to convert [e a0] to [Debye]
 Dipole X            :          2.5968761           -1.8127317            0.7841444
 Dipole Y            :          1.2116728           -1.0650371            0.1466357
 Dipole Z            :          1.1188803           -0.9457764            0.1731039
 Magnitude           :                                                    0.8163023

 ------------------------------------------------------------------------------------

*** tstop() called on choehoyun-ui-MacBookAir.local at Mon Aug 10 19:04:51 2026
Module time:
	user time   =      81.47 seconds =       1.36 minutes
	system time =       1.79 seconds =       0.03 minutes
	total time  =         14 seconds =       0.23 minutes
Total time:
	user time   =      81.47 seconds =       1.36 minutes
	system time =       1.79 seconds =       0.03 minutes
	total time  =         14 seconds =       0.23 minutes

    Psi4 stopped on: Monday, 10 August 2026 07:04PM
    Psi4 wall time for execution: 0:00:14.01

*** Psi4 exiting successfully. Buy a developer a beer!
