
    -----------------------------------------------------------------------
          Psi4: An Open-Source Ab Initio Electronic Structure Package
                               Psi4 1.11 release

                         Git: Rev {} zzzzzzz 


    D. G. A. Smith, L. A. Burns, A. C. Simmonett, R. M. Parrish,
    M. C. Schieber, R. Galvelis, P. Kraus, H. Kruse, R. Di Remigio,
    A. Alenaizan, A. M. James, S. Lehtola, J. P. Misiewicz, M. Scheurer,
    R. A. Shaw, J. B. Schriber, Y. Xie, Z. L. Glick, D. A. Sirianni,
    J. S. O'Brien, J. M. Waldrop, A. Kumar, E. G. Hohenstein,
    B. P. Pritchard, B. R. Brooks, H. F. Schaefer III, A. Yu. Sokolov,
    K. Patkowski, A. E. DePrince III, U. Bozkaya, R. A. King,
    F. A. Evangelista, J. M. Turney, T. D. Crawford, C. D. Sherrill,
    J. Chem. Phys. 152(18) 184108 (2020). https://doi.org/10.1063/5.0006002

                            Additional Code Authors
    E. T. Seidl, C. L. Janssen, E. F. Valeev, M. L. Leininger,
    J. F. Gonthier, R. M. Richard, H. R. McAlexander, M. Saitow, X. Wang,
    P. Verma, M. H. Lechner, A. Jiang, S. Behnle, A. G. Heide,
    M. F. Herbst, D. L. Poole, T. Győri, E. C. Mitchell, J. P. Pederson,
    and A. M. Wallace

             Previous Authors, Complete List of Code Contributors,
                       and Citations for Specific Modules
    https://github.com/psi4/psi4/blob/master/codemeta.json
    https://github.com/psi4/psi4/graphs/contributors
    https://psicode.org/psi4manual/master/introduction.html#citing-psifour

    -----------------------------------------------------------------------


    Psi4 started on: Monday, 10 August 2026 06:33PM

    Process ID: 75395
    Host:       choehoyun-ui-MacBookAir.local
    PSIDATADIR: /Users/hoyoun/micromamba/envs/psi4env/share/psi4
    Memory:     500.0 MiB
    Threads:    8
    Addons:     a̶d̶c̶c̶, a̶m̶b̶i̶t̶, b̶s̶e̶, c̶c̶t̶3̶, c̶f̶o̶u̶r̶, c̶h̶e̶m̶p̶s̶2̶, c̶p̶p̶e̶, d̶d̶x̶, dftd3,
                d̶f̶t̶d̶4̶, dkh, ecpint, einsums, f̶o̶r̶t̶e̶, gauxc, g̶c̶p̶, g̶d̶m̶a̶,
                g̶e̶o̶m̶e̶t̶r̶i̶c̶, g̶p̶u̶_̶d̶f̶c̶c̶, i̶n̶t̶e̶g̶r̶a̶t̶o̶r̶x̶x̶, i̶p̶i̶,
                l̶i̶b̶e̶f̶p̶, m̶d̶i̶, m̶p̶2̶d̶, m̶r̶c̶c̶, ooo, o̶p̶e̶n̶f̶e̶r̶m̶i̶o̶n̶p̶s̶i̶4̶,
                pcmsolver, p̶s̶i̶4̶f̶o̶c̶k̶c̶i̶, p̶s̶i̶x̶a̶s̶, p̶y̶e̶i̶n̶s̶u̶m̶s̶, r̶e̶s̶p̶,
                s̶i̶m̶i̶n̶t̶, s̶n̶s̶m̶p̶2̶, v̶2̶r̶d̶m̶_̶c̶a̶s̶s̶c̶f̶

  ==> Input File <==

--------------------------------------------------------------------------
memory 3 GB
molecule mol {
0 1
C 0.00000000000000 0.78193794473619 1.31098790704267
C 0.00000000000000 -0.78193794473619 1.31098790704267
C 0.00000000000000 0.73928794749589 -0.21337098468752
C 0.00000000000000 -0.73928794749589 -0.21337098468752
C 0.00000000000000 1.66893488157362 -1.16066791765423
C 0.00000000000000 -1.66893488157362 -1.16066791765423
H 0.88511393699230 1.23833291211446 1.75268687554671
H -0.88511393699230 1.23833291211446 1.75268687554671
H 0.88511393699230 -1.23833291211446 1.75268687554671
H -0.88511393699230 -1.23833291211446 1.75268687554671
H 0.00000000000000 2.72313180674982 -0.91714693490207
H 0.00000000000000 1.40375890053000 -2.20992284309918
H 0.00000000000000 -1.40375890053000 -2.20992284309918
H 0.00000000000000 -2.72313180674982 -0.91714693490207
units angstrom
no_reorient
no_com
}
set basis def2-SVP
set scf_type df
set freeze_core true
set e_convergence 8
energy('b3lyp-d3bj')
--------------------------------------------------------------------------

  Memory set to   2.794 GiB by Python driver.

Scratch directory: /Users/hoyoun/Documents/Yonsei_AX_Camp/(진짜_이게_최종)/calibration/dft_work/_scratch/R43/
   => Libint2 <=

    Primary   basis highest AM E, G, H:  7, 6, 3
    Auxiliary basis highest AM E, G, H:  7, 7, 4
    Onebody   basis highest AM E, G, H:  -, -, -
    Solid Harmonics ordering:            Gaussian

*** tstart() called on choehoyun-ui-MacBookAir.local
*** at Mon Aug 10 18:33:40 2026

   => Loading Basis Set <=

    Name: DEF2-SVP
    Role: ORBITAL
    Keyword: BASIS
    atoms 1-6  entry C          line    90 file /Users/hoyoun/micromamba/envs/psi4env/share/psi4/basis/def2-svp.gbs 
    atoms 7-14 entry H          line    15 file /Users/hoyoun/micromamba/envs/psi4env/share/psi4/basis/def2-svp.gbs 

   => B3LYP-D3(BJ): Empirical Dispersion <=

    Grimme's -D3 (BJ-damping) Dispersion Correction
    Grimme S.; Ehrlich S.; Goerigk L. (2011), J. Comput. Chem., 32: 1456

        s6 =       1.000000
        s8 =       1.988900
        a1 =       0.398100
        a2 =       4.421100


         ---------------------------------------------------------
                                   SCF
               by Justin Turney, Rob Parrish, Andy Simmonett
                          and Daniel G. A. Smith
                              RKS Reference
                        8 Threads,   2861 MiB Core
         ---------------------------------------------------------

  ==> Geometry <==

    Molecular point group: c2v
    Full point group: C2v

    Geometry (in Angstrom), charge = 0, multiplicity = 1:

       Center              X                  Y                   Z               Mass       
    ------------   -----------------  -----------------  -----------------  -----------------
         C           -0.000000000000     0.781937944736     1.310987907043    12.000000000000
         C            0.000000000000    -0.781937944736     1.310987907043    12.000000000000
         C           -0.000000000000     0.739287947496    -0.213370984688    12.000000000000
         C            0.000000000000    -0.739287947496    -0.213370984688    12.000000000000
         C           -0.000000000000     1.668934881574    -1.160667917654    12.000000000000
         C            0.000000000000    -1.668934881574    -1.160667917654    12.000000000000
         H            0.885113936992     1.238332912114     1.752686875547     1.007825032230
         H           -0.885113936992     1.238332912114     1.752686875547     1.007825032230
         H            0.885113936992    -1.238332912114     1.752686875547     1.007825032230
         H           -0.885113936992    -1.238332912114     1.752686875547     1.007825032230
         H           -0.000000000000     2.723131806750    -0.917146934902     1.007825032230
         H           -0.000000000000     1.403758900530    -2.209922843099     1.007825032230
         H            0.000000000000    -1.403758900530    -2.209922843099     1.007825032230
         H            0.000000000000    -2.723131806750    -0.917146934902     1.007825032230

  Running in c2v symmetry.

  Rotational constants: A =      0.16567  B =      0.13717  C =      0.07721 [cm^-1]
  Rotational constants: A =   4966.66240  B =   4112.16324  C =   2314.68081 [MHz]
  Nuclear repulsion =  213.521778871099116

  Charge       = 0
  Multiplicity = 1
  Electrons    = 44
  Nalpha       = 22
  Nbeta        = 22

  ==> Algorithm <==

  SCF Algorithm Type is DF.
  DIIS enabled.
  MOM disabled.
  Fractional occupation disabled.
  Guess Type is SAD.
  Energy threshold   = 1.00e-08
  Density threshold  = 1.00e-06
  Integral threshold = 1.00e-12

  ==> Primary Basis <==

  Basis Set: DEF2-SVP
    Blend: DEF2-SVP
    Number of shells: 60
    Number of basis functions: 124
    Number of Cartesian functions: 130
    Spherical Harmonics?: true
    Max angular momentum: 2

  ==> DFT Potential <==

   => LibXC <=

    Version 7.1.2
    S. Lehtola, C. Steigemann, M. J. T. Oliveira, and M. A. L. Marques,  SoftwareX 7, 1–5 (2018) (10.1016/j.softx.2017.11.002)

   => Composite Functional: B3LYP-D3BJ2B <= 

    B3LYP-d3bj2b Hyb-GGA Exchange-Correlation Functional

    P. J. Stephens, F. J. Devlin, C. F. Chabalowski, and M. J. Frisch,  J. Phys. Chem. 98, 11623 (1994) (10.1021/j100096a001)

    Deriv               =              1
    GGA                 =           TRUE
    Meta                =          FALSE

    Exchange Hybrid     =           TRUE
    MP2 Hybrid          =          FALSE

   => Exchange Functionals <=

    0.0800   Slater exchange
    0.7200         Becke 88

   => Exact (HF) Exchange <=

    0.2000               HF 

   => Correlation Functionals <=

    0.1900   Vosko, Wilk & Nusair (VWN5_RPA)
    0.8100   Lee, Yang & Parr

   => LibXC Density Thresholds  <==

    XC_HYB_GGA_XC_B3LYP:  1.00E-15 

   => Molecular Quadrature <=

    Radial Scheme          =       TREUTLER
    Pruning Scheme         =           NONE
    Nuclear Scheme         =       TREUTLER

    Blocking Scheme        =         OCTREE
    BS radius alpha        =              1
    Pruning alpha          =              1
    Radial Points          =             75
    Spherical Points       =            302
    Total Points           =         296646
    Total Blocks           =           2246
    Max Points             =            256
    Max Functions          =            122
    Weights Tolerance      =       1.00E-15

   => Loading Basis Set <=

    Name: (DEF2-SVP AUX)
    Role: JKFIT
    Keyword: DF_BASIS_SCF
    atoms 1-6  entry C          line   198 file /Users/hoyoun/micromamba/envs/psi4env/share/psi4/basis/def2-universal-jkfit.gbs 
    atoms 7-14 entry H          line    18 file /Users/hoyoun/micromamba/envs/psi4env/share/psi4/basis/def2-universal-jkfit.gbs 

  ==> Integral Setup <==

  DFHelper Memory: AOs need 0.073 GiB; user supplied 1.260 GiB. 
  SCF_SUBTYPE=INCORE selected. In-core MEM_DF algorithm will be used.
  Using in-core AOs.

  ==> MemDFJK: Density-Fitted J/K Matrices <==

    J tasked:                   Yes
    K tasked:                   Yes
    wK tasked:                   No
    OpenMP threads:               8
    Memory [MiB]:              1290
    Algorithm:                 Core
    Schwarz Cutoff:           1E-12
    Mask sparsity (%):       1.9771
    Fitting Condition:        1E-10

   => Auxiliary Basis Set <=

  Basis Set: (DEF2-SVP AUX)
    Blend: DEF2-UNIVERSAL-JKFIT
    Number of shells: 198
    Number of basis functions: 594
    Number of Cartesian functions: 694
    Spherical Harmonics?: true
    Max angular momentum: 4

  Cached 100.0% of DFT collocation blocks in 0.835 [GiB].

  Minimum eigenvalue in the overlap matrix is 9.8306822105E-04.
  Reciprocal condition number of the overlap matrix is 1.5578482503E-04.
    Using symmetric orthogonalization.

  ==> Pre-Iterations <==

  SCF Guess: Superposition of Atomic Densities via on-the-fly atomic UHF (no occupation information).

   -------------------------
    Irrep   Nso     Nmo    
   -------------------------
     A1        43      43 
     A2        19      19 
     B1        19      19 
     B2        43      43 
   -------------------------
    Total     124     124
   -------------------------

  ==> Iterations <==

                           Total Energy        Delta E     RMS |[F,P]|

   @DF-RKS iter SAD:  -232.71566910122957   -2.32716e+02   0.00000e+00 
   @DF-RKS iter   1:  -232.78470862305045   -6.90395e-02   1.29572e-02 ADIIS/DIIS
   @DF-RKS iter   2:  -232.66656344023050    1.18145e-01   1.48392e-02 ADIIS/DIIS
   @DF-RKS iter   3:  -233.21377478475122   -5.47211e-01   2.95098e-03 ADIIS/DIIS
   @DF-RKS iter   4:  -233.23082651629525   -1.70517e-02   1.07853e-03 ADIIS/DIIS
   @DF-RKS iter   5:  -233.23347518394553   -2.64867e-03   9.80813e-05 DIIS
   @DF-RKS iter   6:  -233.23349469261723   -1.95087e-05   2.72026e-05 DIIS
   @DF-RKS iter   7:  -233.23349623524933   -1.54263e-06   8.57385e-06 DIIS
   @DF-RKS iter   8:  -233.23349640875261   -1.73503e-07   8.58059e-07 DIIS
   @DF-RKS iter   9:  -233.23349641083931   -2.08669e-09   8.02699e-08 DIIS
  Energy and wave function converged.


  ==> Post-Iterations <==

   Electrons on quadrature grid:
      Ntotal   =   44.0000538140 ; deviation = 5.381e-05 

    Orbital Energies [Eh]
    ---------------------

    Doubly Occupied:                                                      

       1A1   -10.189588     1B2   -10.189558     2B2   -10.186433  
       2A1   -10.186406     3B2   -10.178647     3A1   -10.178527  
       4A1    -0.853036     4B2    -0.728894     5A1    -0.721630  
       5B2    -0.614917     6A1    -0.595113     6B2    -0.484245  
       7A1    -0.471996     1B1    -0.464428     8A1    -0.459942  
       7B2    -0.418393     1A2    -0.370172     9A1    -0.341812  
       8B2    -0.330220    10A1    -0.325028     2B1    -0.304662  
       2A2    -0.230500  

    Virtual:                                                              

       3B1    -0.038508    11A1     0.073429    12A1     0.084594  
       3A2     0.090087     9B2     0.096998     4B1     0.115197  
      13A1     0.116193    10B2     0.130252    11B2     0.148739  
      12B2     0.181111     4A2     0.189053    14A1     0.198115  
      15A1     0.293967    13B2     0.306951    14B2     0.341627  
      16A1     0.347650    15B2     0.362247    17A1     0.425167  
       5B1     0.440033    16B2     0.445403    18A1     0.456924  
       6B1     0.501449    19A1     0.504773    17B2     0.512156  
       5A2     0.523841    18B2     0.595324    20A1     0.601068  
       6A2     0.632679     7B1     0.639502    21A1     0.649375  
      22A1     0.652743    19B2     0.666640    23A1     0.669335  
      24A1     0.678348    20B2     0.683958     7A2     0.694116  
       8B1     0.699745    21B2     0.706905    22B2     0.756624  
      25A1     0.811101    23B2     0.827033    24B2     0.865957  
       8A2     0.931797    26A1     0.935956    25B2     0.971061  
      27A1     1.115469     9B1     1.144898    26B2     1.163231  
       9A2     1.208604    10B1     1.208949    11B1     1.280364  
      10A2     1.329304    27B2     1.442204    28A1     1.528208  
      11A2     1.536811    12B1     1.550721    29A1     1.589539  
      30A1     1.612593    28B2     1.619197    31A1     1.667498  
      29B2     1.709025    13B1     1.714129    12A2     1.724682  
      32A1     1.735180    30B2     1.763844    14B1     1.771677  
      33A1     1.813081    15B1     1.822911    31B2     1.848029  
      13A2     1.885120    34A1     1.905220    14A2     1.982010  
      32B2     1.989373    33B2     2.002946    35A1     2.017998  
      34B2     2.077941    15A2     2.103945    36A1     2.133603  
      16B1     2.152973    37A1     2.208654    17B1     2.269881  
      35B2     2.288877    16A2     2.317233    38A1     2.367777  
      36B2     2.401380    18B1     2.446257    39A1     2.533017  
      37B2     2.541766    17A2     2.547110    18A2     2.648265  
      38B2     2.680647    40A1     2.728595    39B2     2.776724  
      41A1     2.781576    40B2     2.872878    19B1     2.893994  
      42A1     2.910764    41B2     2.948564    19A2     3.111208  
      43A1     3.135867    42B2     3.214179    43B2     3.427046  

    Final Occupation by Irrep:
             A1    A2    B1    B2 
    DOCC [    10,    2,    2,    8 ]
    NA   [    10,    2,    2,    8 ]
    NB   [    10,    2,    2,    8 ]

  @DF-RKS Final Energy:  -233.23349641083931

   => Energetics <=

    Nuclear Repulsion Energy =            213.5217788710991158
    One-Electron Energy =                -735.1747797243283458
    Two-Electron Energy =                 317.1558504722423777
    DFT Exchange-Correlation Energy =     -28.7169052966683296
    Empirical Dispersion Energy =          -0.0194407331840629
    VV10 Nonlocal Energy =                  0.0000000000000000
    Total Energy =                       -233.2334964108393081

Computation Completed


Properties will be evaluated at   0.000000,   0.000000,   0.000000 [a0]

Properties computed using the SCF density matrix


 Multipole Moments:

 ------------------------------------------------------------------------------------
     Multipole            Electronic (a.u.)      Nuclear  (a.u.)        Total (a.u.)
 ------------------------------------------------------------------------------------

 L = 1.  Multiply by 2.5417464519 to convert [e a0] to [Debye]
 Dipole X            :          0.0000000            0.0000000            0.0000000
 Dipole Y            :          0.0000000            0.0000000            0.0000000
 Dipole Z            :          0.1845579           -0.0000076            0.1845503
 Magnitude           :                                                    0.1845503

 ------------------------------------------------------------------------------------

*** tstop() called on choehoyun-ui-MacBookAir.local at Mon Aug 10 18:33:42 2026
Module time:
	user time   =       9.98 seconds =       0.17 minutes
	system time =       0.29 seconds =       0.00 minutes
	total time  =          2 seconds =       0.03 minutes
Total time:
	user time   =       9.98 seconds =       0.17 minutes
	system time =       0.29 seconds =       0.00 minutes
	total time  =          2 seconds =       0.03 minutes

    Psi4 stopped on: Monday, 10 August 2026 06:33PM
    Psi4 wall time for execution: 0:00:02.05

*** Psi4 exiting successfully. Buy a developer a beer!
