
    -----------------------------------------------------------------------
          Psi4: An Open-Source Ab Initio Electronic Structure Package
                               Psi4 1.11 release

                         Git: Rev {} zzzzzzz 


    D. G. A. Smith, L. A. Burns, A. C. Simmonett, R. M. Parrish,
    M. C. Schieber, R. Galvelis, P. Kraus, H. Kruse, R. Di Remigio,
    A. Alenaizan, A. M. James, S. Lehtola, J. P. Misiewicz, M. Scheurer,
    R. A. Shaw, J. B. Schriber, Y. Xie, Z. L. Glick, D. A. Sirianni,
    J. S. O'Brien, J. M. Waldrop, A. Kumar, E. G. Hohenstein,
    B. P. Pritchard, B. R. Brooks, H. F. Schaefer III, A. Yu. Sokolov,
    K. Patkowski, A. E. DePrince III, U. Bozkaya, R. A. King,
    F. A. Evangelista, J. M. Turney, T. D. Crawford, C. D. Sherrill,
    J. Chem. Phys. 152(18) 184108 (2020). https://doi.org/10.1063/5.0006002

                            Additional Code Authors
    E. T. Seidl, C. L. Janssen, E. F. Valeev, M. L. Leininger,
    J. F. Gonthier, R. M. Richard, H. R. McAlexander, M. Saitow, X. Wang,
    P. Verma, M. H. Lechner, A. Jiang, S. Behnle, A. G. Heide,
    M. F. Herbst, D. L. Poole, T. Győri, E. C. Mitchell, J. P. Pederson,
    and A. M. Wallace

             Previous Authors, Complete List of Code Contributors,
                       and Citations for Specific Modules
    https://github.com/psi4/psi4/blob/master/codemeta.json
    https://github.com/psi4/psi4/graphs/contributors
    https://psicode.org/psi4manual/master/introduction.html#citing-psifour

    -----------------------------------------------------------------------


    Psi4 started on: Monday, 10 August 2026 06:37PM

    Process ID: 75902
    Host:       choehoyun-ui-MacBookAir.local
    PSIDATADIR: /Users/hoyoun/micromamba/envs/psi4env/share/psi4
    Memory:     500.0 MiB
    Threads:    8
    Addons:     a̶d̶c̶c̶, a̶m̶b̶i̶t̶, b̶s̶e̶, c̶c̶t̶3̶, c̶f̶o̶u̶r̶, c̶h̶e̶m̶p̶s̶2̶, c̶p̶p̶e̶, d̶d̶x̶, dftd3,
                d̶f̶t̶d̶4̶, dkh, ecpint, einsums, f̶o̶r̶t̶e̶, gauxc, g̶c̶p̶, g̶d̶m̶a̶,
                g̶e̶o̶m̶e̶t̶r̶i̶c̶, g̶p̶u̶_̶d̶f̶c̶c̶, i̶n̶t̶e̶g̶r̶a̶t̶o̶r̶x̶x̶, i̶p̶i̶,
                l̶i̶b̶e̶f̶p̶, m̶d̶i̶, m̶p̶2̶d̶, m̶r̶c̶c̶, ooo, o̶p̶e̶n̶f̶e̶r̶m̶i̶o̶n̶p̶s̶i̶4̶,
                pcmsolver, p̶s̶i̶4̶f̶o̶c̶k̶c̶i̶, p̶s̶i̶x̶a̶s̶, p̶y̶e̶i̶n̶s̶u̶m̶s̶, r̶e̶s̶p̶,
                s̶i̶m̶i̶n̶t̶, s̶n̶s̶m̶p̶2̶, v̶2̶r̶d̶m̶_̶c̶a̶s̶s̶c̶f̶

  ==> Input File <==

--------------------------------------------------------------------------
memory 3 GB
molecule mol {
0 1
C 1.24201071085759 0.66554725998878 -0.58120802016049
C 1.24201071085759 -0.66554725998878 -0.58120802016049
C 0.00000000000000 -1.12164890382831 0.21150049287516
C -1.24201071085759 -0.66554725998878 -0.58120802016049
C -1.24201071085759 0.66554725998878 -0.58120802016049
C 0.00000000000000 1.12164890382831 0.21150049287516
C 0.00000000000000 0.00000000000000 1.29565543814018
H 1.93016660207356 1.33333695925463 -1.08006053855549
H 1.93016660207356 -1.33333695925463 -1.08006053855549
H 0.00000000000000 -2.15619172848030 0.54783284812642
H -1.93016660207356 -1.33333695925463 -1.08006053855549
H -1.93016660207356 1.33333695925463 -1.08006053855549
H 0.00000000000000 2.15619172848030 0.54783284812642
H 0.89792376053519 0.00000000000000 1.91537605736029
H -0.89792376053519 0.00000000000000 1.91537605736029
units angstrom
no_reorient
no_com
}
set basis def2-SVP
set scf_type df
set freeze_core true
set e_convergence 8
energy('b3lyp-d3bj')
--------------------------------------------------------------------------

  Memory set to   2.794 GiB by Python driver.

Scratch directory: /Users/hoyoun/Documents/Yonsei_AX_Camp/(진짜_이게_최종)/calibration/dft_work/_scratch/P12/
   => Libint2 <=

    Primary   basis highest AM E, G, H:  7, 6, 3
    Auxiliary basis highest AM E, G, H:  7, 7, 4
    Onebody   basis highest AM E, G, H:  -, -, -
    Solid Harmonics ordering:            Gaussian

*** tstart() called on choehoyun-ui-MacBookAir.local
*** at Mon Aug 10 18:37:47 2026

   => Loading Basis Set <=

    Name: DEF2-SVP
    Role: ORBITAL
    Keyword: BASIS
    atoms 1-7  entry C          line    90 file /Users/hoyoun/micromamba/envs/psi4env/share/psi4/basis/def2-svp.gbs 
    atoms 8-15 entry H          line    15 file /Users/hoyoun/micromamba/envs/psi4env/share/psi4/basis/def2-svp.gbs 

   => B3LYP-D3(BJ): Empirical Dispersion <=

    Grimme's -D3 (BJ-damping) Dispersion Correction
    Grimme S.; Ehrlich S.; Goerigk L. (2011), J. Comput. Chem., 32: 1456

        s6 =       1.000000
        s8 =       1.988900
        a1 =       0.398100
        a2 =       4.421100


         ---------------------------------------------------------
                                   SCF
               by Justin Turney, Rob Parrish, Andy Simmonett
                          and Daniel G. A. Smith
                              RKS Reference
                        8 Threads,   2861 MiB Core
         ---------------------------------------------------------

  ==> Geometry <==

    Molecular point group: c2v
    Full point group: C2v

    Geometry (in Angstrom), charge = 0, multiplicity = 1:

       Center              X                  Y                   Z               Mass       
    ------------   -----------------  -----------------  -----------------  -----------------
         C            1.242010710858     0.665547259989    -0.581208020160    12.000000000000
         C            1.242010710858    -0.665547259989    -0.581208020160    12.000000000000
         C            0.000000000000    -1.121648903828     0.211500492875    12.000000000000
         C           -1.242010710858    -0.665547259989    -0.581208020160    12.000000000000
         C           -1.242010710858     0.665547259989    -0.581208020160    12.000000000000
         C           -0.000000000000     1.121648903828     0.211500492875    12.000000000000
         C            0.000000000000     0.000000000000     1.295655438140    12.000000000000
         H            1.930166602074     1.333336959255    -1.080060538555     1.007825032230
         H            1.930166602074    -1.333336959255    -1.080060538555     1.007825032230
         H            0.000000000000    -2.156191728480     0.547832848126     1.007825032230
         H           -1.930166602074    -1.333336959255    -1.080060538555     1.007825032230
         H           -1.930166602074     1.333336959255    -1.080060538555     1.007825032230
         H           -0.000000000000     2.156191728480     0.547832848126     1.007825032230
         H            0.897923760535     0.000000000000     1.915376057360     1.007825032230
         H           -0.897923760535    -0.000000000000     1.915376057360     1.007825032230

  Running in c2v symmetry.

  Rotational constants: A =      0.14271  B =      0.11971  C =      0.10624 [cm^-1]
  Rotational constants: A =   4278.19415  B =   3588.74334  C =   3184.84951 [MHz]
  Nuclear repulsion =  287.742117730502002

  Charge       = 0
  Multiplicity = 1
  Electrons    = 50
  Nalpha       = 25
  Nbeta        = 25

  ==> Algorithm <==

  SCF Algorithm Type is DF.
  DIIS enabled.
  MOM disabled.
  Fractional occupation disabled.
  Guess Type is SAD.
  Energy threshold   = 1.00e-08
  Density threshold  = 1.00e-06
  Integral threshold = 1.00e-12

  ==> Primary Basis <==

  Basis Set: DEF2-SVP
    Blend: DEF2-SVP
    Number of shells: 66
    Number of basis functions: 138
    Number of Cartesian functions: 145
    Spherical Harmonics?: true
    Max angular momentum: 2

  ==> DFT Potential <==

   => LibXC <=

    Version 7.1.2
    S. Lehtola, C. Steigemann, M. J. T. Oliveira, and M. A. L. Marques,  SoftwareX 7, 1–5 (2018) (10.1016/j.softx.2017.11.002)

   => Composite Functional: B3LYP-D3BJ2B <= 

    B3LYP-d3bj2b Hyb-GGA Exchange-Correlation Functional

    P. J. Stephens, F. J. Devlin, C. F. Chabalowski, and M. J. Frisch,  J. Phys. Chem. 98, 11623 (1994) (10.1021/j100096a001)

    Deriv               =              1
    GGA                 =           TRUE
    Meta                =          FALSE

    Exchange Hybrid     =           TRUE
    MP2 Hybrid          =          FALSE

   => Exchange Functionals <=

    0.0800   Slater exchange
    0.7200         Becke 88

   => Exact (HF) Exchange <=

    0.2000               HF 

   => Correlation Functionals <=

    0.1900   Vosko, Wilk & Nusair (VWN5_RPA)
    0.8100   Lee, Yang & Parr

   => LibXC Density Thresholds  <==

    XC_HYB_GGA_XC_B3LYP:  1.00E-15 

   => Molecular Quadrature <=

    Radial Scheme          =       TREUTLER
    Pruning Scheme         =           NONE
    Nuclear Scheme         =       TREUTLER

    Blocking Scheme        =         OCTREE
    BS radius alpha        =              1
    Pruning alpha          =              1
    Radial Points          =             75
    Spherical Points       =            302
    Total Points           =         314228
    Total Blocks           =           2402
    Max Points             =            256
    Max Functions          =            138
    Weights Tolerance      =       1.00E-15

   => Loading Basis Set <=

    Name: (DEF2-SVP AUX)
    Role: JKFIT
    Keyword: DF_BASIS_SCF
    atoms 1-7  entry C          line   198 file /Users/hoyoun/micromamba/envs/psi4env/share/psi4/basis/def2-universal-jkfit.gbs 
    atoms 8-15 entry H          line    18 file /Users/hoyoun/micromamba/envs/psi4env/share/psi4/basis/def2-universal-jkfit.gbs 

  ==> Integral Setup <==

  DFHelper Memory: AOs need 0.103 GiB; user supplied 1.061 GiB. 
  SCF_SUBTYPE=INCORE selected. In-core MEM_DF algorithm will be used.
  Using in-core AOs.

  ==> MemDFJK: Density-Fitted J/K Matrices <==

    J tasked:                   Yes
    K tasked:                   Yes
    wK tasked:                   No
    OpenMP threads:               8
    Memory [MiB]:              1086
    Algorithm:                 Core
    Schwarz Cutoff:           1E-12
    Mask sparsity (%):       0.3886
    Fitting Condition:        1E-10

   => Auxiliary Basis Set <=

  Basis Set: (DEF2-SVP AUX)
    Blend: DEF2-UNIVERSAL-JKFIT
    Number of shells: 223
    Number of basis functions: 669
    Number of Cartesian functions: 783
    Spherical Harmonics?: true
    Max angular momentum: 4

  Cached 100.0% of DFT collocation blocks in 1.034 [GiB].

  Minimum eigenvalue in the overlap matrix is 9.1521834012E-04.
  Reciprocal condition number of the overlap matrix is 1.4723730501E-04.
    Using symmetric orthogonalization.

  ==> Pre-Iterations <==

  SCF Guess: Superposition of Atomic Densities via on-the-fly atomic UHF (no occupation information).

   -------------------------
    Irrep   Nso     Nmo    
   -------------------------
     A1        44      44 
     A2        26      26 
     B1        31      31 
     B2        37      37 
   -------------------------
    Total     138     138
   -------------------------

  ==> Iterations <==

                           Total Energy        Delta E     RMS |[F,P]|

   @DF-RKS iter SAD:  -271.12573413366255   -2.71126e+02   0.00000e+00 
   @DF-RKS iter   1:  -270.83702098911948    2.88713e-01   1.27007e-02 DIIS/ADIIS
   @DF-RKS iter   2:  -270.46524726281001    3.71774e-01   1.80245e-02 DIIS/ADIIS
   @DF-RKS iter   3:  -271.30606705670465   -8.40820e-01   1.21914e-03 DIIS/ADIIS
   @DF-RKS iter   4:  -271.30858803952032   -2.52098e-03   6.21490e-04 DIIS/ADIIS
   @DF-RKS iter   5:  -271.30947481804878   -8.86779e-04   1.43050e-04 DIIS/ADIIS
   @DF-RKS iter   6:  -271.30952421001456   -4.93920e-05   8.43697e-06 DIIS
   @DF-RKS iter   7:  -271.30952439018381   -1.80169e-07   2.62682e-06 DIIS
   @DF-RKS iter   8:  -271.30952440795807   -1.77743e-08   5.78858e-07 DIIS
   @DF-RKS iter   9:  -271.30952440863359   -6.75527e-10   2.75330e-07 DIIS
  Energy and wave function converged.


  ==> Post-Iterations <==

   Electrons on quadrature grid:
      Ntotal   =   49.9998138243 ; deviation = -1.862e-04 

    Orbital Energies [Eh]
    ---------------------

    Doubly Occupied:                                                      

       1B2   -10.195514     1A1   -10.195503     2A1   -10.185689  
       1B1   -10.178532     3A1   -10.178489     2B2   -10.177692  
       1A2   -10.177690     4A1    -0.881484     2B1    -0.739716  
       3B2    -0.698759     5A1    -0.685259     6A1    -0.558819  
       2A2    -0.551527     7A1    -0.520791     4B2    -0.496874  
       3B1    -0.478877     4B1    -0.417556     8A1    -0.387389  
       9A1    -0.370635     5B2    -0.368023     5B1    -0.349915  
       6B2    -0.335013     3A2    -0.329931    10A1    -0.257381  
       6B1    -0.227883  

    Virtual:                                                              

       7B2    -0.011313     4A2     0.043600    11A1     0.069184  
       7B1     0.104701    12A1     0.109476     8B2     0.111419  
       8B1     0.136077     5A2     0.138192     9B2     0.140304  
      13A1     0.140408    14A1     0.175556    15A1     0.197653  
      10B2     0.199450     9B1     0.206967     6A2     0.308030  
      11B2     0.314658     7A2     0.341096    12B2     0.353611  
      16A1     0.364108    10B1     0.429618    17A1     0.439232  
      11B1     0.465071    13B2     0.505414    18A1     0.512655  
      12B1     0.520574     8A2     0.521942    19A1     0.557908  
      14B2     0.577175    13B1     0.586150    20A1     0.593405  
      15B2     0.596723    21A1     0.605142     9A2     0.640643  
      16B2     0.642602    14B1     0.650793    22A1     0.654498  
      17B2     0.681729    23A1     0.682673    15B1     0.685409  
      10A2     0.699964    24A1     0.705714    18B2     0.735991  
      16B1     0.756141    11A2     0.772288    12A2     0.813523  
      25A1     0.832815    19B2     0.848268    20B2     0.905825  
      26A1     0.982797    13A2     1.042307    27A1     1.139637  
      21B2     1.171242    17B1     1.234751    28A1     1.235071  
      22B2     1.251359    18B1     1.310006    14A2     1.345797  
      29A1     1.372823    19B1     1.498601    23B2     1.527351  
      20B1     1.608259    15A2     1.621734    30A1     1.624666  
      21B1     1.626214    24B2     1.649187    16A2     1.658655  
      31A1     1.699339    22B1     1.717831    25B2     1.728199  
      32A1     1.729163    17A2     1.770134    23B1     1.823615  
      26B2     1.847282    33A1     1.865431    34A1     1.893914  
      24B1     1.912130    27B2     1.944513    35A1     1.957464  
      18A2     1.965617    25B1     1.983578    19A2     2.016601  
      26B1     2.031906    28B2     2.045106    29B2     2.064282  
      36A1     2.064969    30B2     2.128267    37A1     2.130463  
      27B1     2.140157    20A2     2.140708    38A1     2.221513  
      21A2     2.321144    39A1     2.371047    22A2     2.395056  
      31B2     2.415218    28B1     2.435989    40A1     2.498276  
      32B2     2.512127    23A2     2.524550    33B2     2.598716  
      41A1     2.642490    29B1     2.664014    34B2     2.733061  
      24A2     2.748672    30B1     2.764622    42A1     2.785909  
      35B2     2.843816    43A1     2.874416    36B2     2.984713  
      25A2     3.030605    31B1     3.041516    44A1     3.049872  
      26A2     3.339206    37B2     3.452571  

    Final Occupation by Irrep:
             A1    A2    B1    B2 
    DOCC [    10,    3,    6,    6 ]
    NA   [    10,    3,    6,    6 ]
    NB   [    10,    3,    6,    6 ]

  @DF-RKS Final Energy:  -271.30952440863359

   => Energetics <=

    Nuclear Repulsion Energy =            287.7421177305020024
    One-Electron Energy =                -934.3562520609212925
    Two-Electron Energy =                 408.4444981998596518
    DFT Exchange-Correlation Energy =     -33.1139562519514996
    Empirical Dispersion Energy =          -0.0259320261224223
    VV10 Nonlocal Energy =                  0.0000000000000000
    Total Energy =                       -271.3095244086335924

Computation Completed


Properties will be evaluated at   0.000000,   0.000000,   0.000000 [a0]

Properties computed using the SCF density matrix


 Multipole Moments:

 ------------------------------------------------------------------------------------
     Multipole            Electronic (a.u.)      Nuclear  (a.u.)        Total (a.u.)
 ------------------------------------------------------------------------------------

 L = 1.  Multiply by 2.5417464519 to convert [e a0] to [Debye]
 Dipole X            :          0.0000000           -0.0000000           -0.0000000
 Dipole Y            :          0.0000000            0.0000000            0.0000000
 Dipole Z            :          5.7218816           -5.7275299           -0.0056483
 Magnitude           :                                                    0.0056483

 ------------------------------------------------------------------------------------

*** tstop() called on choehoyun-ui-MacBookAir.local at Mon Aug 10 18:37:49 2026
Module time:
	user time   =      12.30 seconds =       0.21 minutes
	system time =       0.31 seconds =       0.01 minutes
	total time  =          2 seconds =       0.03 minutes
Total time:
	user time   =      12.30 seconds =       0.21 minutes
	system time =       0.31 seconds =       0.01 minutes
	total time  =          2 seconds =       0.03 minutes

    Psi4 stopped on: Monday, 10 August 2026 06:37PM
    Psi4 wall time for execution: 0:00:02.37

*** Psi4 exiting successfully. Buy a developer a beer!
