
    -----------------------------------------------------------------------
          Psi4: An Open-Source Ab Initio Electronic Structure Package
                               Psi4 1.11 release

                         Git: Rev {} zzzzzzz 


    D. G. A. Smith, L. A. Burns, A. C. Simmonett, R. M. Parrish,
    M. C. Schieber, R. Galvelis, P. Kraus, H. Kruse, R. Di Remigio,
    A. Alenaizan, A. M. James, S. Lehtola, J. P. Misiewicz, M. Scheurer,
    R. A. Shaw, J. B. Schriber, Y. Xie, Z. L. Glick, D. A. Sirianni,
    J. S. O'Brien, J. M. Waldrop, A. Kumar, E. G. Hohenstein,
    B. P. Pritchard, B. R. Brooks, H. F. Schaefer III, A. Yu. Sokolov,
    K. Patkowski, A. E. DePrince III, U. Bozkaya, R. A. King,
    F. A. Evangelista, J. M. Turney, T. D. Crawford, C. D. Sherrill,
    J. Chem. Phys. 152(18) 184108 (2020). https://doi.org/10.1063/5.0006002

                            Additional Code Authors
    E. T. Seidl, C. L. Janssen, E. F. Valeev, M. L. Leininger,
    J. F. Gonthier, R. M. Richard, H. R. McAlexander, M. Saitow, X. Wang,
    P. Verma, M. H. Lechner, A. Jiang, S. Behnle, A. G. Heide,
    M. F. Herbst, D. L. Poole, T. Győri, E. C. Mitchell, J. P. Pederson,
    and A. M. Wallace

             Previous Authors, Complete List of Code Contributors,
                       and Citations for Specific Modules
    https://github.com/psi4/psi4/blob/master/codemeta.json
    https://github.com/psi4/psi4/graphs/contributors
    https://psicode.org/psi4manual/master/introduction.html#citing-psifour

    -----------------------------------------------------------------------


    Psi4 started on: Sunday, 09 August 2026 04:05AM

    Process ID: 52946
    Host:       choehoyun-ui-MacBookAir.local
    PSIDATADIR: /Users/hoyoun/micromamba/envs/psi4env/share/psi4
    Memory:     500.0 MiB
    Threads:    8
    Addons:     a̶d̶c̶c̶, a̶m̶b̶i̶t̶, b̶s̶e̶, c̶c̶t̶3̶, c̶f̶o̶u̶r̶, c̶h̶e̶m̶p̶s̶2̶, c̶p̶p̶e̶, d̶d̶x̶, dftd3,
                d̶f̶t̶d̶4̶, dkh, ecpint, einsums, f̶o̶r̶t̶e̶, gauxc, g̶c̶p̶, g̶d̶m̶a̶,
                g̶e̶o̶m̶e̶t̶r̶i̶c̶, g̶p̶u̶_̶d̶f̶c̶c̶, i̶n̶t̶e̶g̶r̶a̶t̶o̶r̶x̶x̶, i̶p̶i̶,
                l̶i̶b̶e̶f̶p̶, m̶d̶i̶, m̶p̶2̶d̶, m̶r̶c̶c̶, ooo, o̶p̶e̶n̶f̶e̶r̶m̶i̶o̶n̶p̶s̶i̶4̶,
                pcmsolver, p̶s̶i̶4̶f̶o̶c̶k̶c̶i̶, p̶s̶i̶x̶a̶s̶, p̶y̶e̶i̶n̶s̶u̶m̶s̶, r̶e̶s̶p̶,
                s̶i̶m̶i̶n̶t̶, s̶n̶s̶m̶p̶2̶, v̶2̶r̶d̶m̶_̶c̶a̶s̶s̶c̶f̶

  ==> Input File <==

--------------------------------------------------------------------------
memory 3 GB
molecule mol {
0 1
C 0.07509883811622 1.31682868114825 -1.30920889516175
C -1.20804590990344 0.58315103375059 -1.22894047999582
C -1.04310746587182 -0.40260552583543 -0.09485192040524
C 0.40191427332718 -0.27892839850294 0.41875967177065
C 0.96453777111807 0.91141390818176 -0.37149557088968
C 2.77463776194198 2.60165929487265 -0.80165261024462
C 2.28358015051200 1.48675022679793 -0.08574437659628
C 3.10734740888507 0.94106425463798 0.92066461154604
C 4.36581783823638 1.48150174540391 1.19646457274108
C 4.83629463062159 2.58123802333401 0.47420963332447
C 4.03071173068960 3.13794090578235 -0.52875412780475
C 1.61741485264406 -1.93794314239949 -1.07570033770463
C 1.16813324231826 -1.57530589008938 0.20190001791152
C 1.39166681104603 -2.45267952165862 1.27180945017919
C 2.05554908091002 -3.66775480562524 1.07440665536921
C 2.50198814588554 -4.02050302359000 -0.20340854025298
C 2.27967356951414 -3.15150771363927 -1.27813421459900
C -5.62864926237796 1.23111495112189 0.99955285514500
C -6.24723719117976 0.22306517011062 0.25260305614128
C -5.46514502022985 -0.61458530066221 -0.55129394976162
C -4.07994928399942 -0.44702320926927 -0.60649600103676
C -3.44533820699285 0.56326081740387 0.14027572321915
C -4.24255716625176 1.39944206868708 0.94117295839163
C -1.97642159426170 0.77191422260768 0.09841567839758
H 0.23724621025847 2.12929323397903 -2.01302633855678
H -1.80501294449141 0.37430287793528 -2.11502850420163
H -1.49028266029168 -1.39260477509665 -0.13826800411305
H 0.40539387806162 -0.05463357832685 1.49541450223909
H 2.16175127470882 3.05318086096199 -1.57834037770054
H 2.76616153763763 0.07670261505440 1.48243518187770
H 4.98072470434521 1.03751836091357 1.97733759745413
H 5.81662902276411 3.00245749275813 0.68809840046234
H 4.38386595727019 3.99690865278006 -1.09678039126918
H 1.45421680780307 -1.25362733726601 -1.90579993606317
H 1.04417308084301 -2.17603647933559 2.26713017962664
H 2.22576781912264 -4.33623403040200 1.91662496177013
H 3.02179728305550 -4.96370339954802 -0.36050716170691
H 2.62771043720428 -3.41836682211802 -2.27459190028471
H -6.22602404970731 1.88893670952490 1.62848659948170
H -7.32647983223480 0.09085974279592 0.29570903233125
H -5.93605765046010 -1.40234377472337 -1.13687778388149
H -3.48411730605965 -1.10632176268614 -1.23487270283950
H -3.76526854886287 2.18722038243289 1.52275651912953
H -1.61011002566427 1.58498225779772 0.72554626656078
units angstrom
no_reorient
no_com
}
set basis def2-TZVP
set scf_type disk_df
set freeze_core true
set e_convergence 8
energy('b3lyp-d3bj')
--------------------------------------------------------------------------

  Memory set to   2.794 GiB by Python driver.

Scratch directory: /Users/hoyoun/Documents/Yonsei_AX_Camp/(진짜_이게_최종)/calibration/dft_work/_scratch/i17e/
   => Libint2 <=

    Primary   basis highest AM E, G, H:  7, 6, 3
    Auxiliary basis highest AM E, G, H:  7, 7, 4
    Onebody   basis highest AM E, G, H:  -, -, -
    Solid Harmonics ordering:            Gaussian

*** tstart() called on choehoyun-ui-MacBookAir.local
*** at Sun Aug  9 04:05:10 2026

   => Loading Basis Set <=

    Name: DEF2-TZVP
    Role: ORBITAL
    Keyword: BASIS
    atoms 1-24  entry C          line   123 file /Users/hoyoun/micromamba/envs/psi4env/share/psi4/basis/def2-tzvp.gbs 
    atoms 25-44 entry H          line    15 file /Users/hoyoun/micromamba/envs/psi4env/share/psi4/basis/def2-tzvp.gbs 

   => B3LYP-D3(BJ): Empirical Dispersion <=

    Grimme's -D3 (BJ-damping) Dispersion Correction
    Grimme S.; Ehrlich S.; Goerigk L. (2011), J. Comput. Chem., 32: 1456

        s6 =       1.000000
        s8 =       1.988900
        a1 =       0.398100
        a2 =       4.421100


         ---------------------------------------------------------
                                   SCF
               by Justin Turney, Rob Parrish, Andy Simmonett
                          and Daniel G. A. Smith
                              RKS Reference
                        8 Threads,   2861 MiB Core
         ---------------------------------------------------------

  ==> Geometry <==

    Molecular point group: c1
    Full point group: C1

    Geometry (in Angstrom), charge = 0, multiplicity = 1:

       Center              X                  Y                   Z               Mass       
    ------------   -----------------  -----------------  -----------------  -----------------
         C            0.075098838116     1.316828681148    -1.309208895162    12.000000000000
         C           -1.208045909903     0.583151033751    -1.228940479996    12.000000000000
         C           -1.043107465872    -0.402605525835    -0.094851920405    12.000000000000
         C            0.401914273327    -0.278928398503     0.418759671771    12.000000000000
         C            0.964537771118     0.911413908182    -0.371495570890    12.000000000000
         C            2.774637761942     2.601659294873    -0.801652610245    12.000000000000
         C            2.283580150512     1.486750226798    -0.085744376596    12.000000000000
         C            3.107347408885     0.941064254638     0.920664611546    12.000000000000
         C            4.365817838236     1.481501745404     1.196464572741    12.000000000000
         C            4.836294630622     2.581238023334     0.474209633324    12.000000000000
         C            4.030711730690     3.137940905782    -0.528754127805    12.000000000000
         C            1.617414852644    -1.937943142399    -1.075700337705    12.000000000000
         C            1.168133242318    -1.575305890089     0.201900017912    12.000000000000
         C            1.391666811046    -2.452679521659     1.271809450179    12.000000000000
         C            2.055549080910    -3.667754805625     1.074406655369    12.000000000000
         C            2.501988145886    -4.020503023590    -0.203408540253    12.000000000000
         C            2.279673569514    -3.151507713639    -1.278134214599    12.000000000000
         C           -5.628649262378     1.231114951122     0.999552855145    12.000000000000
         C           -6.247237191180     0.223065170111     0.252603056141    12.000000000000
         C           -5.465145020230    -0.614585300662    -0.551293949762    12.000000000000
         C           -4.079949283999    -0.447023209269    -0.606496001037    12.000000000000
         C           -3.445338206993     0.563260817404     0.140275723219    12.000000000000
         C           -4.242557166252     1.399442068687     0.941172958392    12.000000000000
         C           -1.976421594262     0.771914222608     0.098415678398    12.000000000000
         H            0.237246210258     2.129293233979    -2.013026338557     1.007825032230
         H           -1.805012944491     0.374302877935    -2.115028504202     1.007825032230
         H           -1.490282660292    -1.392604775097    -0.138268004113     1.007825032230
         H            0.405393878062    -0.054633578327     1.495414502239     1.007825032230
         H            2.161751274709     3.053180860962    -1.578340377701     1.007825032230
         H            2.766161537638     0.076702615054     1.482435181878     1.007825032230
         H            4.980724704345     1.037518360914     1.977337597454     1.007825032230
         H            5.816629022764     3.002457492758     0.688098400462     1.007825032230
         H            4.383865957270     3.996908652780    -1.096780391269     1.007825032230
         H            1.454216807803    -1.253627337266    -1.905799936063     1.007825032230
         H            1.044173080843    -2.176036479336     2.267130179627     1.007825032230
         H            2.225767819123    -4.336234030402     1.916624961770     1.007825032230
         H            3.021797283056    -4.963703399548    -0.360507161707     1.007825032230
         H            2.627710437204    -3.418366822118    -2.274591900285     1.007825032230
         H           -6.226024049707     1.888936709525     1.628486599482     1.007825032230
         H           -7.326479832235     0.090859742796     0.295709032331     1.007825032230
         H           -5.936057650460    -1.402343774723    -1.136877783881     1.007825032230
         H           -3.484117306060    -1.106321762686    -1.234872702839     1.007825032230
         H           -3.765268548863     2.187220382433     1.522756519130     1.007825032230
         H           -1.610110025664     1.584982257798     0.725546266561     1.007825032230

  Running in c1 symmetry.

  Rotational constants: A =      0.01194  B =      0.00468  C =      0.00371 [cm^-1]
  Rotational constants: A =    358.00340  B =    140.39013  C =    111.07895 [MHz]
  Nuclear repulsion = 1809.858128813885742

  Charge       = 0
  Multiplicity = 1
  Electrons    = 164
  Nalpha       = 82
  Nbeta        = 82

  ==> Algorithm <==

  SCF Algorithm Type is DISK_DF.
  DIIS enabled.
  MOM disabled.
  Fractional occupation disabled.
  Guess Type is SAD.
  Energy threshold   = 1.00e-08
  Density threshold  = 1.00e-06
  Integral threshold = 1.00e-12

  ==> Primary Basis <==

  Basis Set: DEF2-TZVP
    Blend: DEF2-TZVP
    Number of shells: 344
    Number of basis functions: 864
    Number of Cartesian functions: 984
    Spherical Harmonics?: true
    Max angular momentum: 3

  ==> DFT Potential <==

   => LibXC <=

    Version 7.1.2
    S. Lehtola, C. Steigemann, M. J. T. Oliveira, and M. A. L. Marques,  SoftwareX 7, 1–5 (2018) (10.1016/j.softx.2017.11.002)

   => Composite Functional: B3LYP-D3BJ2B <= 

    B3LYP-d3bj2b Hyb-GGA Exchange-Correlation Functional

    P. J. Stephens, F. J. Devlin, C. F. Chabalowski, and M. J. Frisch,  J. Phys. Chem. 98, 11623 (1994) (10.1021/j100096a001)

    Deriv               =              1
    GGA                 =           TRUE
    Meta                =          FALSE

    Exchange Hybrid     =           TRUE
    MP2 Hybrid          =          FALSE

   => Exchange Functionals <=

    0.0800   Slater exchange
    0.7200         Becke 88

   => Exact (HF) Exchange <=

    0.2000               HF 

   => Correlation Functionals <=

    0.1900   Vosko, Wilk & Nusair (VWN5_RPA)
    0.8100   Lee, Yang & Parr

   => LibXC Density Thresholds  <==

    XC_HYB_GGA_XC_B3LYP:  1.00E-15 

   => Molecular Quadrature <=

    Radial Scheme          =       TREUTLER
    Pruning Scheme         =           NONE
    Nuclear Scheme         =       TREUTLER

    Blocking Scheme        =         OCTREE
    BS radius alpha        =              1
    Pruning alpha          =              1
    Radial Points          =             75
    Spherical Points       =            302
    Total Points           =         903160
    Total Blocks           =           6350
    Max Points             =            256
    Max Functions          =            589
    Weights Tolerance      =       1.00E-15

   => Loading Basis Set <=

    Name: (DEF2-TZVP AUX)
    Role: JKFIT
    Keyword: DF_BASIS_SCF
    atoms 1-24  entry C          line   198 file /Users/hoyoun/micromamba/envs/psi4env/share/psi4/basis/def2-universal-jkfit.gbs 
    atoms 25-44 entry H          line    18 file /Users/hoyoun/micromamba/envs/psi4env/share/psi4/basis/def2-universal-jkfit.gbs 

  ==> Integral Setup <==

  ==> DiskDFJK: Density-Fitted J/K Matrices <==

    J tasked:                  Yes
    K tasked:                  Yes
    wK tasked:                  No
    OpenMP threads:              8
    Integrals threads:           8
    Memory [MiB]:             1931
    Algorithm:                Disk
    Integral Cache:           NONE
    Schwarz Cutoff:          1E-12
    Fitting Condition:       1E-10

   => Auxiliary Basis Set <=

  Basis Set: (DEF2-TZVP AUX)
    Blend: DEF2-UNIVERSAL-JKFIT
    Number of shells: 720
    Number of basis functions: 2160
    Number of Cartesian functions: 2536
    Spherical Harmonics?: true
    Max angular momentum: 4

  Cached 2.2% of DFT collocation blocks in 0.197 [GiB].

  Minimum eigenvalue in the overlap matrix is 7.5766677203E-06.
  Reciprocal condition number of the overlap matrix is 6.4008001879E-07.
    Using symmetric orthogonalization.

  ==> Pre-Iterations <==

  SCF Guess: Superposition of Atomic Densities via on-the-fly atomic UHF (no occupation information).

   -------------------------
    Irrep   Nso     Nmo    
   -------------------------
     A        864     864 
   -------------------------
    Total     864     864
   -------------------------

  ==> Iterations <==

                           Total Energy        Delta E     RMS |[F,P]|

   @DF-RKS iter SAD:  -926.37821620295585   -9.26378e+02   0.00000e+00 
   @DF-RKS iter   1:  -925.21024944288285    1.16797e+00   2.09288e-03 DIIS/ADIIS
   @DF-RKS iter   2:  -924.14810450334767    1.06214e+00   2.63634e-03 DIIS/ADIIS
   @DF-RKS iter   3:  -926.95415290816334   -2.80605e+00   3.17111e-04 DIIS/ADIIS
   @DF-RKS iter   4:  -926.95901845163451   -4.86554e-03   2.96388e-04 DIIS/ADIIS
   @DF-RKS iter   5:  -926.99338960697378   -3.43712e-02   6.67107e-05 DIIS
   @DF-RKS iter   6:  -926.99482155970497   -1.43195e-03   2.71643e-05 DIIS
   @DF-RKS iter   7:  -926.99509794469338   -2.76385e-04   6.19818e-06 DIIS
   @DF-RKS iter   8:  -926.99511024698222   -1.23023e-05   2.88283e-06 DIIS
   @DF-RKS iter   9:  -926.99511351884428   -3.27186e-06   5.29627e-07 DIIS
   @DF-RKS iter  10:  -926.99511360530778   -8.64635e-08   2.35812e-07 DIIS
   @DF-RKS iter  11:  -926.99511362542069   -2.01129e-08   6.87481e-08 DIIS
   @DF-RKS iter  12:  -926.99511362727333   -1.85264e-09   2.17310e-08 DIIS
  Energy and wave function converged.


  ==> Post-Iterations <==

   Electrons on quadrature grid:
      Ntotal   =  163.9995387534 ; deviation = -4.612e-04 

    Orbital Energies [Eh]
    ---------------------

    Doubly Occupied:                                                      

       1A    -10.193566     2A    -10.191432     3A    -10.189896  
       4A    -10.189840     5A    -10.189370     6A    -10.187866  
       7A    -10.186177     8A    -10.185723     9A    -10.179366  
      10A    -10.179102    11A    -10.178504    12A    -10.178487  
      13A    -10.178409    14A    -10.177849    15A    -10.177777  
      16A    -10.177742    17A    -10.177547    18A    -10.177357  
      19A    -10.177004    20A    -10.176424    21A    -10.175980  
      22A    -10.175895    23A    -10.175073    24A    -10.174738  
      25A     -0.906165    26A     -0.862697    27A     -0.855903  
      28A     -0.851081    29A     -0.802086    30A     -0.767655  
      31A     -0.756016    32A     -0.746708    33A     -0.746534  
      34A     -0.746084    35A     -0.724163    36A     -0.699621  
      37A     -0.642495    38A     -0.618992    39A     -0.609281  
      40A     -0.609016    41A     -0.605731    42A     -0.595773  
      43A     -0.572106    44A     -0.560299    45A     -0.543057  
      46A     -0.536536    47A     -0.516626    48A     -0.510650  
      49A     -0.487575    50A     -0.472424    51A     -0.465170  
      52A     -0.458210    53A     -0.455708    54A     -0.449474  
      55A     -0.447709    56A     -0.436449    57A     -0.424180  
      58A     -0.422922    59A     -0.422159    60A     -0.419740  
      61A     -0.411717    62A     -0.392657    63A     -0.386639  
      64A     -0.380661    65A     -0.374428    66A     -0.372653  
      67A     -0.363452    68A     -0.355806    69A     -0.350558  
      70A     -0.347891    71A     -0.346686    72A     -0.342380  
      73A     -0.336305    74A     -0.327246    75A     -0.299580  
      76A     -0.288365    77A     -0.258884    78A     -0.257484  
      79A     -0.257136    80A     -0.249941    81A     -0.242344  
      82A     -0.213459  

    Virtual:                                                              

      83A     -0.049526    84A     -0.021946    85A     -0.017446  
      86A     -0.015401    87A     -0.011420    88A     -0.008334  
      89A      0.031875    90A      0.043377    91A      0.047440  
      92A      0.050683    93A      0.051583    94A      0.062950  
      95A      0.064303    96A      0.074367    97A      0.082779  
      98A      0.085997    99A      0.088344   100A      0.090730  
     101A      0.097290   102A      0.099979   103A      0.101627  
     104A      0.109200   105A      0.112914   106A      0.117416  
     107A      0.123333   108A      0.125583   109A      0.130910  
     110A      0.136806   111A      0.140977   112A      0.143323  
     113A      0.145687   114A      0.147225   115A      0.161125  
     116A      0.163972   117A      0.168470   118A      0.175736  
     119A      0.179631   120A      0.189551   121A      0.198943  
     122A      0.200475   123A      0.204132   124A      0.206710  
     125A      0.208657   126A      0.214844   127A      0.215126  
     128A      0.218584   129A      0.219222   130A      0.223362  
     131A      0.225637   132A      0.229451   133A      0.230895  
     134A      0.234112   135A      0.238506   136A      0.240203  
     137A      0.245791   138A      0.250181   139A      0.255834  
     140A      0.258181   141A      0.262883   142A      0.266708  
     143A      0.271120   144A      0.274893   145A      0.281192  
     146A      0.284315   147A      0.290793   148A      0.292924  
     149A      0.298376   150A      0.301406   151A      0.308337  
     152A      0.314902   153A      0.317555   154A      0.319553  
     155A      0.323966   156A      0.326210   157A      0.328020  
     158A      0.335493   159A      0.339176   160A      0.345177  
     161A      0.347520   162A      0.351877   163A      0.353273  
     164A      0.358462   165A      0.361027   166A      0.362951  
     167A      0.366888   168A      0.372045   169A      0.373304  
     170A      0.377985   171A      0.382965   172A      0.384286  
     173A      0.386865   174A      0.394717   175A      0.398714  
     176A      0.405225   177A      0.406976   178A      0.407106  
     179A      0.411946   180A      0.414959   181A      0.416660  
     182A      0.419369   183A      0.421025   184A      0.424784  
     185A      0.428039   186A      0.430310   187A      0.432952  
     188A      0.434419   189A      0.440204   190A      0.442166  
     191A      0.445181   192A      0.448417   193A      0.451059  
     194A      0.455916   195A      0.463591   196A      0.469700  
     197A      0.472330   198A      0.476808   199A      0.479576  
     200A      0.484619   201A      0.489157   202A      0.491118  
     203A      0.493196   204A      0.495403   205A      0.499992  
     206A      0.500906   207A      0.502870   208A      0.508390  
     209A      0.512146   210A      0.516200   211A      0.519242  
     212A      0.522864   213A      0.534091   214A      0.540917  
     215A      0.542060   216A      0.551015   217A      0.561178  
     218A      0.568940   219A      0.575678   220A      0.578392  
     221A      0.587190   222A      0.601183   223A      0.603665  
     224A      0.616178   225A      0.619322   226A      0.625970  
     227A      0.637686   228A      0.642829   229A      0.646075  
     230A      0.651490   231A      0.657187   232A      0.664717  
     233A      0.667245   234A      0.672936   235A      0.679176  
     236A      0.681733   237A      0.684034   238A      0.687484  
     239A      0.689853   240A      0.695114   241A      0.699956  
     242A      0.702879   243A      0.710250   244A      0.715964  
     245A      0.722249   246A      0.731682   247A      0.732486  
     248A      0.737290   249A      0.742136   250A      0.749347  
     251A      0.755805   252A      0.760589   253A      0.761779  
     254A      0.766566   255A      0.768657   256A      0.777532  
     257A      0.783364   258A      0.790243   259A      0.795510  
     260A      0.802337   261A      0.807826   262A      0.819543  
     263A      0.826115   264A      0.829181   265A      0.837312  
     266A      0.839841   267A      0.842188   268A      0.847691  
     269A      0.859043   270A      0.863639   271A      0.865026  
     272A      0.872245   273A      0.875097   274A      0.884364  
     275A      0.891830   276A      0.896377   277A      0.901840  
     278A      0.905146   279A      0.907315   280A      0.911309  
     281A      0.918092   282A      0.927986   283A      0.932924  
     284A      0.947405   285A      0.954942   286A      0.971245  
     287A      0.976541   288A      0.989923   289A      0.997158  
     290A      1.000600   291A      1.004720   292A      1.017100  
     293A      1.022908   294A      1.026342   295A      1.028149  
     296A      1.039934   297A      1.041858   298A      1.052298  
     299A      1.058083   300A      1.061122   301A      1.067324  
     302A      1.077030   303A      1.079414   304A      1.084120  
     305A      1.088169   306A      1.098197   307A      1.105259  
     308A      1.128887   309A      1.130505   310A      1.140075  
     311A      1.147214   312A      1.151993   313A      1.156422  
     314A      1.158150   315A      1.176780   316A      1.182738  
     317A      1.186689   318A      1.194303   319A      1.197529  
     320A      1.205254   321A      1.212175   322A      1.214040  
     323A      1.217656   324A      1.222816   325A      1.228691  
     326A      1.231671   327A      1.242245   328A      1.247274  
     329A      1.247770   330A      1.254581   331A      1.258547  
     332A      1.260039   333A      1.263309   334A      1.270726  
     335A      1.273656   336A      1.280158   337A      1.288615  
     338A      1.291571   339A      1.300714   340A      1.307706  
     341A      1.311797   342A      1.315069   343A      1.328641  
     344A      1.332338   345A      1.334290   346A      1.341263  
     347A      1.357170   348A      1.365298   349A      1.370355  
     350A      1.377696   351A      1.386499   352A      1.395921  
     353A      1.402325   354A      1.404873   355A      1.408780  
     356A      1.418963   357A      1.429704   358A      1.434400  
     359A      1.443985   360A      1.446222   361A      1.450524  
     362A      1.451600   363A      1.460846   364A      1.469683  
     365A      1.471684   366A      1.474255   367A      1.480140  
     368A      1.486188   369A      1.492302   370A      1.496898  
     371A      1.503288   372A      1.506719   373A      1.511208  
     374A      1.517316   375A      1.527671   376A      1.538960  
     377A      1.546315   378A      1.553053   379A      1.557789  
     380A      1.568275   381A      1.569288   382A      1.582899  
     383A      1.593194   384A      1.594972   385A      1.599735  
     386A      1.613485   387A      1.623001   388A      1.624524  
     389A      1.631156   390A      1.640579   391A      1.645588  
     392A      1.649799   393A      1.653778   394A      1.662664  
     395A      1.666778   396A      1.671361   397A      1.673835  
     398A      1.679821   399A      1.684307   400A      1.686476  
     401A      1.692045   402A      1.696175   403A      1.697130  
     404A      1.702353   405A      1.706633   406A      1.710680  
     407A      1.717408   408A      1.724405   409A      1.727351  
     410A      1.733268   411A      1.744132   412A      1.753696  
     413A      1.759866   414A      1.773403   415A      1.785336  
     416A      1.797096   417A      1.814003   418A      1.831499  
     419A      1.844193   420A      1.848422   421A      1.852297  
     422A      1.855178   423A      1.874238   424A      1.893823  
     425A      1.902416   426A      1.907595   427A      1.913417  
     428A      1.926032   429A      1.928486   430A      1.948308  
     431A      1.955302   432A      1.957585   433A      1.959421  
     434A      1.966101   435A      1.979236   436A      1.996355  
     437A      1.999329   438A      2.008721   439A      2.011874  
     440A      2.027886   441A      2.036120   442A      2.046633  
     443A      2.050979   444A      2.053911   445A      2.056190  
     446A      2.068141   447A      2.079586   448A      2.088084  
     449A      2.090631   450A      2.096725   451A      2.110624  
     452A      2.121658   453A      2.130732   454A      2.138358  
     455A      2.141009   456A      2.146869   457A      2.160023  
     458A      2.163561   459A      2.168527   460A      2.172707  
     461A      2.180970   462A      2.190704   463A      2.195502  
     464A      2.201808   465A      2.221897   466A      2.231759  
     467A      2.235478   468A      2.241707   469A      2.243915  
     470A      2.245879   471A      2.259044   472A      2.271145  
     473A      2.284707   474A      2.290262   475A      2.306657  
     476A      2.320194   477A      2.322939   478A      2.341952  
     479A      2.360024   480A      2.370433   481A      2.377847  
     482A      2.384483   483A      2.384786   484A      2.393480  
     485A      2.422893   486A      2.439205   487A      2.452102  
     488A      2.456342   489A      2.466697   490A      2.475453  
     491A      2.479016   492A      2.490283   493A      2.496043  
     494A      2.504869   495A      2.507459   496A      2.516781  
     497A      2.527875   498A      2.529900   499A      2.534407  
     500A      2.541071   501A      2.544956   502A      2.557683  
     503A      2.561290   504A      2.565392   505A      2.572621  
     506A      2.589728   507A      2.591554   508A      2.596429  
     509A      2.603236   510A      2.607638   511A      2.611577  
     512A      2.613681   513A      2.622762   514A      2.631477  
     515A      2.640305   516A      2.645709   517A      2.649239  
     518A      2.652104   519A      2.656576   520A      2.659134  
     521A      2.660226   522A      2.665065   523A      2.673160  
     524A      2.676443   525A      2.678197   526A      2.687793  
     527A      2.689383   528A      2.695847   529A      2.704005  
     530A      2.706331   531A      2.713726   532A      2.718666  
     533A      2.720442   534A      2.726596   535A      2.730924  
     536A      2.738947   537A      2.744588   538A      2.747477  
     539A      2.755823   540A      2.760087   541A      2.765843  
     542A      2.770726   543A      2.773310   544A      2.775706  
     545A      2.780806   546A      2.784773   547A      2.787803  
     548A      2.794688   549A      2.795006   550A      2.800294  
     551A      2.804492   552A      2.811985   553A      2.818161  
     554A      2.826523   555A      2.830471   556A      2.832053  
     557A      2.835120   558A      2.838046   559A      2.842691  
     560A      2.844539   561A      2.853025   562A      2.857672  
     563A      2.863746   564A      2.866021   565A      2.872512  
     566A      2.877923   567A      2.885384   568A      2.898161  
     569A      2.903288   570A      2.905731   571A      2.913908  
     572A      2.923378   573A      2.936675   574A      2.939086  
     575A      2.946737   576A      2.957198   577A      2.959034  
     578A      2.975971   579A      2.978186   580A      2.993784  
     581A      3.004579   582A      3.018847   583A      3.023745  
     584A      3.028479   585A      3.037639   586A      3.039604  
     587A      3.046064   588A      3.052608   589A      3.055539  
     590A      3.061897   591A      3.073311   592A      3.079407  
     593A      3.082178   594A      3.102137   595A      3.106647  
     596A      3.111590   597A      3.121528   598A      3.123881  
     599A      3.129028   600A      3.130513   601A      3.132676  
     602A      3.142157   603A      3.146812   604A      3.150556  
     605A      3.155598   606A      3.158637   607A      3.162491  
     608A      3.165104   609A      3.170120   610A      3.173548  
     611A      3.182896   612A      3.188727   613A      3.189523  
     614A      3.196981   615A      3.200945   616A      3.203880  
     617A      3.211392   618A      3.217642   619A      3.221672  
     620A      3.228521   621A      3.234127   622A      3.238636  
     623A      3.246407   624A      3.251664   625A      3.254137  
     626A      3.256176   627A      3.265492   628A      3.273309  
     629A      3.284456   630A      3.288378   631A      3.293338  
     632A      3.297642   633A      3.304438   634A      3.311656  
     635A      3.315800   636A      3.320965   637A      3.322392  
     638A      3.329566   639A      3.335409   640A      3.345180  
     641A      3.347324   642A      3.349344   643A      3.355037  
     644A      3.362422   645A      3.374413   646A      3.377830  
     647A      3.384125   648A      3.391949   649A      3.396360  
     650A      3.399657   651A      3.402753   652A      3.405915  
     653A      3.408948   654A      3.418090   655A      3.419301  
     656A      3.433039   657A      3.438058   658A      3.443063  
     659A      3.448946   660A      3.452202   661A      3.458059  
     662A      3.469899   663A      3.472341   664A      3.472611  
     665A      3.478099   666A      3.480129   667A      3.489338  
     668A      3.492174   669A      3.494555   670A      3.504761  
     671A      3.508639   672A      3.509219   673A      3.519772  
     674A      3.521631   675A      3.531476   676A      3.539878  
     677A      3.549177   678A      3.555097   679A      3.567892  
     680A      3.571592   681A      3.578968   682A      3.581864  
     683A      3.592228   684A      3.598496   685A      3.601677  
     686A      3.603631   687A      3.616076   688A      3.624015  
     689A      3.645642   690A      3.651429   691A      3.669575  
     692A      3.680406   693A      3.688536   694A      3.693499  
     695A      3.699673   696A      3.710776   697A      3.711728  
     698A      3.732749   699A      3.742779   700A      3.747361  
     701A      3.750668   702A      3.766062   703A      3.771764  
     704A      3.784146   705A      3.794176   706A      3.809997  
     707A      3.820039   708A      3.830181   709A      3.839853  
     710A      3.871156   711A      3.881249   712A      3.885410  
     713A      3.902255   714A      3.908020   715A      3.915066  
     716A      3.929883   717A      3.933536   718A      3.938642  
     719A      3.947111   720A      3.948803   721A      3.970077  
     722A      3.982875   723A      3.990490   724A      3.994486  
     725A      4.002704   726A      4.011172   727A      4.015813  
     728A      4.028035   729A      4.033291   730A      4.041377  
     731A      4.046291   732A      4.059562   733A      4.071980  
     734A      4.079368   735A      4.088580   736A      4.100525  
     737A      4.114791   738A      4.121148   739A      4.130474  
     740A      4.145736   741A      4.154295   742A      4.155509  
     743A      4.164325   744A      4.180427   745A      4.192011  
     746A      4.198492   747A      4.200759   748A      4.202214  
     749A      4.209270   750A      4.212648   751A      4.216158  
     752A      4.222983   753A      4.227066   754A      4.233291  
     755A      4.236177   756A      4.241691   757A      4.244172  
     758A      4.250464   759A      4.257821   760A      4.264951  
     761A      4.272236   762A      4.278653   763A      4.291942  
     764A      4.298462   765A      4.315355   766A      4.319151  
     767A      4.324473   768A      4.327607   769A      4.342801  
     770A      4.356085   771A      4.362929   772A      4.373518  
     773A      4.405321   774A      4.423221   775A      4.438210  
     776A      4.462313   777A      4.483603   778A      4.498310  
     779A      4.507984   780A      4.527858   781A      4.549858  
     782A      4.564646   783A      4.575414   784A      4.593951  
     785A      4.614836   786A      4.621757   787A      4.636716  
     788A      4.652853   789A      4.665488   790A      4.673117  
     791A      4.698742   792A      4.704508   793A      4.718940  
     794A      4.720138   795A      4.732693   796A      4.748339  
     797A      4.751371   798A      4.768589   799A      4.772649  
     800A      4.774894   801A      4.803034   802A      4.824874  
     803A      4.858765   804A      4.860812   805A      4.869755  
     806A      4.889557   807A      4.898013   808A      4.924134  
     809A      4.951222   810A      4.972826   811A      5.010216  
     812A      5.015716   813A      5.024629   814A      5.055760  
     815A      5.074763   816A      5.083617   817A      5.107096  
     818A      5.117135   819A      5.136691   820A      5.170468  
     821A      5.185414   822A      5.211147   823A      5.215314  
     824A      5.228957   825A      5.245518   826A      5.289719  
     827A      5.308996   828A      5.353603   829A      5.388323  
     830A      5.423096   831A      5.432505   832A      5.437126  
     833A      5.477249   834A      5.503004   835A      5.534165  
     836A      5.567352   837A      5.622920   838A      5.683092  
     839A      5.708855   840A      5.824387   841A     22.073234  
     842A     22.107761   843A     22.240857   844A     22.510519  
     845A     22.526684   846A     22.537535   847A     22.557899  
     848A     22.559037   849A     22.565082   850A     22.581286  
     851A     22.589308   852A     22.657312   853A     22.691819  
     854A     22.730558   855A     22.749819   856A     22.762119  
     857A     22.778287   858A     22.793549   859A     22.880804  
     860A     22.928942   861A     23.069783   862A     23.189349  
     863A     23.204663   864A     23.364140  

    Final Occupation by Irrep:
              A 
    DOCC [    82 ]
    NA   [    82 ]
    NB   [    82 ]

  @DF-RKS Final Energy:  -926.99511362727333

   => Energetics <=

    Nuclear Repulsion Energy =           1809.8581288138857417
    One-Electron Energy =               -4846.7666028268195078
    Two-Electron Energy =                2221.5810322829875076
    DFT Exchange-Correlation Energy =    -111.5647608800239965
    Empirical Dispersion Energy =          -0.1029110173028759
    VV10 Nonlocal Energy =                  0.0000000000000000
    Total Energy =                       -926.9951136272730992

Computation Completed


Properties will be evaluated at   0.000000,   0.000000,   0.000000 [a0]

Properties computed using the SCF density matrix


 Multipole Moments:

 ------------------------------------------------------------------------------------
     Multipole            Electronic (a.u.)      Nuclear  (a.u.)        Total (a.u.)
 ------------------------------------------------------------------------------------

 L = 1.  Multiply by 2.5417464519 to convert [e a0] to [Debye]
 Dipole X            :         -4.8404456            4.8935876            0.0531420
 Dipole Y            :         -6.4626740            6.4393247           -0.0233493
 Dipole Z            :          1.3290613           -1.3742669           -0.0452056
 Magnitude           :                                                    0.0735718

 ------------------------------------------------------------------------------------

*** tstop() called on choehoyun-ui-MacBookAir.local at Sun Aug  9 04:09:51 2026
Module time:
	user time   =    1659.39 seconds =      27.66 minutes
	system time =      38.03 seconds =       0.63 minutes
	total time  =        281 seconds =       4.68 minutes
Total time:
	user time   =    1659.39 seconds =      27.66 minutes
	system time =      38.03 seconds =       0.63 minutes
	total time  =        281 seconds =       4.68 minutes

    Psi4 stopped on: Sunday, 09 August 2026 04:09AM
    Psi4 wall time for execution: 0:04:40.36

*** Psi4 exiting successfully. Buy a developer a beer!
