
    -----------------------------------------------------------------------
          Psi4: An Open-Source Ab Initio Electronic Structure Package
                               Psi4 1.11 release

                         Git: Rev {} zzzzzzz 


    D. G. A. Smith, L. A. Burns, A. C. Simmonett, R. M. Parrish,
    M. C. Schieber, R. Galvelis, P. Kraus, H. Kruse, R. Di Remigio,
    A. Alenaizan, A. M. James, S. Lehtola, J. P. Misiewicz, M. Scheurer,
    R. A. Shaw, J. B. Schriber, Y. Xie, Z. L. Glick, D. A. Sirianni,
    J. S. O'Brien, J. M. Waldrop, A. Kumar, E. G. Hohenstein,
    B. P. Pritchard, B. R. Brooks, H. F. Schaefer III, A. Yu. Sokolov,
    K. Patkowski, A. E. DePrince III, U. Bozkaya, R. A. King,
    F. A. Evangelista, J. M. Turney, T. D. Crawford, C. D. Sherrill,
    J. Chem. Phys. 152(18) 184108 (2020). https://doi.org/10.1063/5.0006002

                            Additional Code Authors
    E. T. Seidl, C. L. Janssen, E. F. Valeev, M. L. Leininger,
    J. F. Gonthier, R. M. Richard, H. R. McAlexander, M. Saitow, X. Wang,
    P. Verma, M. H. Lechner, A. Jiang, S. Behnle, A. G. Heide,
    M. F. Herbst, D. L. Poole, T. Győri, E. C. Mitchell, J. P. Pederson,
    and A. M. Wallace

             Previous Authors, Complete List of Code Contributors,
                       and Citations for Specific Modules
    https://github.com/psi4/psi4/blob/master/codemeta.json
    https://github.com/psi4/psi4/graphs/contributors
    https://psicode.org/psi4manual/master/introduction.html#citing-psifour

    -----------------------------------------------------------------------


    Psi4 started on: Monday, 10 August 2026 06:39PM

    Process ID: 76107
    Host:       choehoyun-ui-MacBookAir.local
    PSIDATADIR: /Users/hoyoun/micromamba/envs/psi4env/share/psi4
    Memory:     500.0 MiB
    Threads:    8
    Addons:     a̶d̶c̶c̶, a̶m̶b̶i̶t̶, b̶s̶e̶, c̶c̶t̶3̶, c̶f̶o̶u̶r̶, c̶h̶e̶m̶p̶s̶2̶, c̶p̶p̶e̶, d̶d̶x̶, dftd3,
                d̶f̶t̶d̶4̶, dkh, ecpint, einsums, f̶o̶r̶t̶e̶, gauxc, g̶c̶p̶, g̶d̶m̶a̶,
                g̶e̶o̶m̶e̶t̶r̶i̶c̶, g̶p̶u̶_̶d̶f̶c̶c̶, i̶n̶t̶e̶g̶r̶a̶t̶o̶r̶x̶x̶, i̶p̶i̶,
                l̶i̶b̶e̶f̶p̶, m̶d̶i̶, m̶p̶2̶d̶, m̶r̶c̶c̶, ooo, o̶p̶e̶n̶f̶e̶r̶m̶i̶o̶n̶p̶s̶i̶4̶,
                pcmsolver, p̶s̶i̶4̶f̶o̶c̶k̶c̶i̶, p̶s̶i̶x̶a̶s̶, p̶y̶e̶i̶n̶s̶u̶m̶s̶, r̶e̶s̶p̶,
                s̶i̶m̶i̶n̶t̶, s̶n̶s̶m̶p̶2̶, v̶2̶r̶d̶m̶_̶c̶a̶s̶s̶c̶f̶

  ==> Input File <==

--------------------------------------------------------------------------
memory 3 GB
molecule mol {
0 1
C 0.18409087238408 0.51513742146303 0.14798044823686
C -0.00606018503838 -0.36483207768433 1.21328892044399
C -0.17660415455487 -1.72925260553988 0.98922578732572
C -0.16320673857508 -2.22720986723053 -0.30864830003420
C 0.02054834013920 -1.35545225740856 -1.38064916747158
C 0.19662545320913 0.00392508868617 -1.15359531390202
C 0.38882483094563 1.99344211685057 0.39021269724247
O -0.45440775847348 2.82542469495271 -0.40970126463082
H -1.36931792095727 2.56265932339539 -0.25361745436244
H -0.02512490562527 0.02000311830330 2.22757708678163
H -0.32456585145741 -2.39961704772561 1.82767830049305
H -0.29834802456739 -3.28742100543783 -0.48663467934117
H 0.03238093854972 -1.73887546422647 -2.39425384831202
H 0.33228370482973 0.68278865497419 -1.98749221622145
H 0.25697668340646 2.21134127950829 1.45705915060490
H 1.40590471578519 2.28793862711958 0.12156985314706
units angstrom
no_reorient
no_com
}
set basis def2-SVP
set scf_type df
set freeze_core true
set e_convergence 8
energy('b3lyp-d3bj')
--------------------------------------------------------------------------

  Memory set to   2.794 GiB by Python driver.

Scratch directory: /Users/hoyoun/Documents/Yonsei_AX_Camp/(진짜_이게_최종)/calibration/dft_work/_scratch/P34/
   => Libint2 <=

    Primary   basis highest AM E, G, H:  7, 6, 3
    Auxiliary basis highest AM E, G, H:  7, 7, 4
    Onebody   basis highest AM E, G, H:  -, -, -
    Solid Harmonics ordering:            Gaussian

*** tstart() called on choehoyun-ui-MacBookAir.local
*** at Mon Aug 10 18:39:38 2026

   => Loading Basis Set <=

    Name: DEF2-SVP
    Role: ORBITAL
    Keyword: BASIS
    atoms 1-7  entry C          line    90 file /Users/hoyoun/micromamba/envs/psi4env/share/psi4/basis/def2-svp.gbs 
    atoms 8    entry O          line   130 file /Users/hoyoun/micromamba/envs/psi4env/share/psi4/basis/def2-svp.gbs 
    atoms 9-16 entry H          line    15 file /Users/hoyoun/micromamba/envs/psi4env/share/psi4/basis/def2-svp.gbs 

   => B3LYP-D3(BJ): Empirical Dispersion <=

    Grimme's -D3 (BJ-damping) Dispersion Correction
    Grimme S.; Ehrlich S.; Goerigk L. (2011), J. Comput. Chem., 32: 1456

        s6 =       1.000000
        s8 =       1.988900
        a1 =       0.398100
        a2 =       4.421100


         ---------------------------------------------------------
                                   SCF
               by Justin Turney, Rob Parrish, Andy Simmonett
                          and Daniel G. A. Smith
                              RKS Reference
                        8 Threads,   2861 MiB Core
         ---------------------------------------------------------

  ==> Geometry <==

    Molecular point group: c1
    Full point group: C1

    Geometry (in Angstrom), charge = 0, multiplicity = 1:

       Center              X                  Y                   Z               Mass       
    ------------   -----------------  -----------------  -----------------  -----------------
         C            0.184090872384     0.515137421463     0.147980448237    12.000000000000
         C           -0.006060185038    -0.364832077684     1.213288920444    12.000000000000
         C           -0.176604154555    -1.729252605540     0.989225787326    12.000000000000
         C           -0.163206738575    -2.227209867231    -0.308648300034    12.000000000000
         C            0.020548340139    -1.355452257409    -1.380649167472    12.000000000000
         C            0.196625453209     0.003925088686    -1.153595313902    12.000000000000
         C            0.388824830946     1.993442116851     0.390212697242    12.000000000000
         O           -0.454407758473     2.825424694953    -0.409701264631    15.994914619570
         H           -1.369317920957     2.562659323395    -0.253617454362     1.007825032230
         H           -0.025124905625     0.020003118303     2.227577086782     1.007825032230
         H           -0.324565851457    -2.399617047726     1.827678300493     1.007825032230
         H           -0.298348024567    -3.287421005438    -0.486634679341     1.007825032230
         H            0.032380938550    -1.738875464226    -2.394253848312     1.007825032230
         H            0.332283704830     0.682788654974    -1.987492216221     1.007825032230
         H            0.256976683406     2.211341279508     1.457059150605     1.007825032230
         H            1.405904715785     2.287938627120     0.121569853147     1.007825032230

  Running in c1 symmetry.

  Rotational constants: A =      0.15949  B =      0.04878  C =      0.03926 [cm^-1]
  Rotational constants: A =   4781.43558  B =   1462.35834  C =   1176.94181 [MHz]
  Nuclear repulsion =  340.738479709398916

  Charge       = 0
  Multiplicity = 1
  Electrons    = 58
  Nalpha       = 29
  Nbeta        = 29

  ==> Algorithm <==

  SCF Algorithm Type is DF.
  DIIS enabled.
  MOM disabled.
  Fractional occupation disabled.
  Guess Type is SAD.
  Energy threshold   = 1.00e-08
  Density threshold  = 1.00e-06
  Integral threshold = 1.00e-12

  ==> Primary Basis <==

  Basis Set: DEF2-SVP
    Blend: DEF2-SVP
    Number of shells: 72
    Number of basis functions: 152
    Number of Cartesian functions: 160
    Spherical Harmonics?: true
    Max angular momentum: 2

  ==> DFT Potential <==

   => LibXC <=

    Version 7.1.2
    S. Lehtola, C. Steigemann, M. J. T. Oliveira, and M. A. L. Marques,  SoftwareX 7, 1–5 (2018) (10.1016/j.softx.2017.11.002)

   => Composite Functional: B3LYP-D3BJ2B <= 

    B3LYP-d3bj2b Hyb-GGA Exchange-Correlation Functional

    P. J. Stephens, F. J. Devlin, C. F. Chabalowski, and M. J. Frisch,  J. Phys. Chem. 98, 11623 (1994) (10.1021/j100096a001)

    Deriv               =              1
    GGA                 =           TRUE
    Meta                =          FALSE

    Exchange Hybrid     =           TRUE
    MP2 Hybrid          =          FALSE

   => Exchange Functionals <=

    0.0800   Slater exchange
    0.7200         Becke 88

   => Exact (HF) Exchange <=

    0.2000               HF 

   => Correlation Functionals <=

    0.1900   Vosko, Wilk & Nusair (VWN5_RPA)
    0.8100   Lee, Yang & Parr

   => LibXC Density Thresholds  <==

    XC_HYB_GGA_XC_B3LYP:  1.00E-15 

   => Molecular Quadrature <=

    Radial Scheme          =       TREUTLER
    Pruning Scheme         =           NONE
    Nuclear Scheme         =       TREUTLER

    Blocking Scheme        =         OCTREE
    BS radius alpha        =              1
    Pruning alpha          =              1
    Radial Points          =             75
    Spherical Points       =            302
    Total Points           =         336869
    Total Blocks           =           2523
    Max Points             =            256
    Max Functions          =            148
    Weights Tolerance      =       1.00E-15

   => Loading Basis Set <=

    Name: (DEF2-SVP AUX)
    Role: JKFIT
    Keyword: DF_BASIS_SCF
    atoms 1-7  entry C          line   198 file /Users/hoyoun/micromamba/envs/psi4env/share/psi4/basis/def2-universal-jkfit.gbs 
    atoms 8    entry O          line   318 file /Users/hoyoun/micromamba/envs/psi4env/share/psi4/basis/def2-universal-jkfit.gbs 
    atoms 9-16 entry H          line    18 file /Users/hoyoun/micromamba/envs/psi4env/share/psi4/basis/def2-universal-jkfit.gbs 

  ==> Integral Setup <==

  DFHelper Memory: AOs need 0.131 GiB; user supplied 1.035 GiB. 
  SCF_SUBTYPE=INCORE selected. In-core MEM_DF algorithm will be used.
  Using in-core AOs.

  ==> MemDFJK: Density-Fitted J/K Matrices <==

    J tasked:                   Yes
    K tasked:                   Yes
    wK tasked:                   No
    OpenMP threads:               8
    Memory [MiB]:              1060
    Algorithm:                 Core
    Schwarz Cutoff:           1E-12
    Mask sparsity (%):       5.6960
    Fitting Condition:        1E-10

   => Auxiliary Basis Set <=

  Basis Set: (DEF2-SVP AUX)
    Blend: DEF2-UNIVERSAL-JKFIT
    Number of shells: 248
    Number of basis functions: 746
    Number of Cartesian functions: 876
    Spherical Harmonics?: true
    Max angular momentum: 4

  Cached 100.0% of DFT collocation blocks in 1.060 [GiB].

  Minimum eigenvalue in the overlap matrix is 2.8951153540E-04.
  Reciprocal condition number of the overlap matrix is 4.4483418030E-05.
    Using symmetric orthogonalization.

  ==> Pre-Iterations <==

  SCF Guess: Superposition of Atomic Densities via on-the-fly atomic UHF (no occupation information).

   -------------------------
    Irrep   Nso     Nmo    
   -------------------------
     A        152     152 
   -------------------------
    Total     152     152
   -------------------------

  ==> Iterations <==

                           Total Energy        Delta E     RMS |[F,P]|

   @DF-RKS iter SAD:  -346.05725245408996   -3.46057e+02   0.00000e+00 
   @DF-RKS iter   1:  -346.07863754089050   -2.13851e-02   5.99535e-03 ADIIS/DIIS
   @DF-RKS iter   2:  -345.96839334437681    1.10244e-01   7.05375e-03 ADIIS/DIIS
   @DF-RKS iter   3:  -346.54713866369167   -5.78745e-01   6.31294e-04 ADIIS/DIIS
   @DF-RKS iter   4:  -346.54976700758141   -2.62834e-03   3.57324e-04 ADIIS/DIIS
   @DF-RKS iter   5:  -346.55094649218836   -1.17948e-03   7.82011e-05 DIIS
   @DF-RKS iter   6:  -346.55099624072631   -4.97485e-05   4.05872e-05 DIIS
   @DF-RKS iter   7:  -346.55101753082567   -2.12901e-05   6.09193e-06 DIIS
   @DF-RKS iter   8:  -346.55101791704874   -3.86223e-07   2.21818e-06 DIIS
   @DF-RKS iter   9:  -346.55101797641515   -5.93664e-08   2.76560e-07 DIIS
   @DF-RKS iter  10:  -346.55101797703020   -6.15046e-10   1.60420e-07 DIIS
  Energy and wave function converged.


  ==> Post-Iterations <==

   Electrons on quadrature grid:
      Ntotal   =   57.9999128385 ; deviation = -8.716e-05 

    Orbital Energies [Eh]
    ---------------------

    Doubly Occupied:                                                      

       1A    -19.127700     2A    -10.234253     3A    -10.193392  
       4A    -10.192057     5A    -10.191654     6A    -10.191418  
       7A    -10.191017     8A    -10.188803     9A     -1.002523  
      10A     -0.853740    11A     -0.760594    12A     -0.742349  
      13A     -0.671867    14A     -0.606042    15A     -0.587786  
      16A     -0.526530    17A     -0.495584    18A     -0.465208  
      19A     -0.448084    20A     -0.437276    21A     -0.426580  
      22A     -0.420421    23A     -0.368984    24A     -0.367511  
      25A     -0.349078    26A     -0.325242    27A     -0.280085  
      28A     -0.260033    29A     -0.251202  

    Virtual:                                                              

      30A     -0.016439    31A     -0.010818    32A      0.060285  
      33A      0.069567    34A      0.090240    35A      0.102084  
      36A      0.118722    37A      0.126404    38A      0.149068  
      39A      0.155435    40A      0.163434    41A      0.213254  
      42A      0.240591    43A      0.291410    44A      0.296337  
      45A      0.305450    46A      0.323220    47A      0.360203  
      48A      0.407188    49A      0.418381    50A      0.418983  
      51A      0.444662    52A      0.452033    53A      0.464798  
      54A      0.475713    55A      0.493155    56A      0.500589  
      57A      0.530342    58A      0.545999    59A      0.552726  
      60A      0.592199    61A      0.600502    62A      0.623783  
      63A      0.631413    64A      0.642617    65A      0.651251  
      66A      0.657995    67A      0.665477    68A      0.674005  
      69A      0.681903    70A      0.705908    71A      0.718044  
      72A      0.735335    73A      0.739329    74A      0.749958  
      75A      0.784914    76A      0.812480    77A      0.848858  
      78A      0.890512    79A      0.933322    80A      1.010005  
      81A      1.014855    82A      1.056027    83A      1.083163  
      84A      1.183535    85A      1.227420    86A      1.238421  
      87A      1.244031    88A      1.248662    89A      1.273004  
      90A      1.282300    91A      1.295682    92A      1.309480  
      93A      1.448089    94A      1.465868    95A      1.488432  
      96A      1.532190    97A      1.599621    98A      1.649911  
      99A      1.667154   100A      1.691919   101A      1.706999  
     102A      1.728517   103A      1.746586   104A      1.752606  
     105A      1.762460   106A      1.772751   107A      1.778633  
     108A      1.801322   109A      1.841820   110A      1.858908  
     111A      1.880645   112A      1.896564   113A      1.941235  
     114A      1.947638   115A      1.976600   116A      1.985794  
     117A      1.993515   118A      2.063830   119A      2.099883  
     120A      2.131507   121A      2.138731   122A      2.143184  
     123A      2.170645   124A      2.218063   125A      2.272798  
     126A      2.292958   127A      2.309395   128A      2.337319  
     129A      2.356113   130A      2.396071   131A      2.410762  
     132A      2.488800   133A      2.570263   134A      2.609273  
     135A      2.626765   136A      2.651896   137A      2.735451  
     138A      2.736296   139A      2.745540   140A      2.842883  
     141A      2.876840   142A      2.888987   143A      2.927343  
     144A      2.962154   145A      3.007594   146A      3.104679  
     147A      3.126030   148A      3.139551   149A      3.230893  
     150A      3.357311   151A      3.646971   152A      3.762603  

    Final Occupation by Irrep:
              A 
    DOCC [    29 ]
    NA   [    29 ]
    NB   [    29 ]

  @DF-RKS Final Energy:  -346.55101797703020

   => Energetics <=

    Nuclear Repulsion Energy =            340.7384797093989164
    One-Electron Energy =               -1143.3991316524679860
    Two-Electron Energy =                 496.2225874722825552
    DFT Exchange-Correlation Energy =     -40.0865286160841876
    Empirical Dispersion Energy =          -0.0264248901594763
    VV10 Nonlocal Energy =                  0.0000000000000000
    Total Energy =                       -346.5510179770301988

Computation Completed


Properties will be evaluated at   0.000000,   0.000000,   0.000000 [a0]

Properties computed using the SCF density matrix


 Multipole Moments:

 ------------------------------------------------------------------------------------
     Multipole            Electronic (a.u.)      Nuclear  (a.u.)        Total (a.u.)
 ------------------------------------------------------------------------------------

 L = 1.  Multiply by 2.5417464519 to convert [e a0] to [Debye]
 Dipole X            :          1.5998224           -1.8136877           -0.2138653
 Dipole Y            :         -7.9178878            7.4771964           -0.4406914
 Dipole Z            :          6.6990403           -6.3850699            0.3139704
 Magnitude           :                                                    0.5818287

 ------------------------------------------------------------------------------------

*** tstop() called on choehoyun-ui-MacBookAir.local at Mon Aug 10 18:39:41 2026
Module time:
	user time   =      13.96 seconds =       0.23 minutes
	system time =       0.43 seconds =       0.01 minutes
	total time  =          3 seconds =       0.05 minutes
Total time:
	user time   =      13.96 seconds =       0.23 minutes
	system time =       0.43 seconds =       0.01 minutes
	total time  =          3 seconds =       0.05 minutes

    Psi4 stopped on: Monday, 10 August 2026 06:39PM
    Psi4 wall time for execution: 0:00:02.72

*** Psi4 exiting successfully. Buy a developer a beer!
