
    -----------------------------------------------------------------------
          Psi4: An Open-Source Ab Initio Electronic Structure Package
                               Psi4 1.11 release

                         Git: Rev {} zzzzzzz 


    D. G. A. Smith, L. A. Burns, A. C. Simmonett, R. M. Parrish,
    M. C. Schieber, R. Galvelis, P. Kraus, H. Kruse, R. Di Remigio,
    A. Alenaizan, A. M. James, S. Lehtola, J. P. Misiewicz, M. Scheurer,
    R. A. Shaw, J. B. Schriber, Y. Xie, Z. L. Glick, D. A. Sirianni,
    J. S. O'Brien, J. M. Waldrop, A. Kumar, E. G. Hohenstein,
    B. P. Pritchard, B. R. Brooks, H. F. Schaefer III, A. Yu. Sokolov,
    K. Patkowski, A. E. DePrince III, U. Bozkaya, R. A. King,
    F. A. Evangelista, J. M. Turney, T. D. Crawford, C. D. Sherrill,
    J. Chem. Phys. 152(18) 184108 (2020). https://doi.org/10.1063/5.0006002

                            Additional Code Authors
    E. T. Seidl, C. L. Janssen, E. F. Valeev, M. L. Leininger,
    J. F. Gonthier, R. M. Richard, H. R. McAlexander, M. Saitow, X. Wang,
    P. Verma, M. H. Lechner, A. Jiang, S. Behnle, A. G. Heide,
    M. F. Herbst, D. L. Poole, T. Győri, E. C. Mitchell, J. P. Pederson,
    and A. M. Wallace

             Previous Authors, Complete List of Code Contributors,
                       and Citations for Specific Modules
    https://github.com/psi4/psi4/blob/master/codemeta.json
    https://github.com/psi4/psi4/graphs/contributors
    https://psicode.org/psi4manual/master/introduction.html#citing-psifour

    -----------------------------------------------------------------------


    Psi4 started on: Sunday, 09 August 2026 01:29AM

    Process ID: 42474
    Host:       choehoyun-ui-MacBookAir.local
    PSIDATADIR: /Users/hoyoun/micromamba/envs/psi4env/share/psi4
    Memory:     500.0 MiB
    Threads:    1
    Addons:     a̶d̶c̶c̶, a̶m̶b̶i̶t̶, b̶s̶e̶, c̶c̶t̶3̶, c̶f̶o̶u̶r̶, c̶h̶e̶m̶p̶s̶2̶, c̶p̶p̶e̶, d̶d̶x̶, dftd3,
                d̶f̶t̶d̶4̶, dkh, ecpint, einsums, f̶o̶r̶t̶e̶, gauxc, g̶c̶p̶, g̶d̶m̶a̶,
                g̶e̶o̶m̶e̶t̶r̶i̶c̶, g̶p̶u̶_̶d̶f̶c̶c̶, i̶n̶t̶e̶g̶r̶a̶t̶o̶r̶x̶x̶, i̶p̶i̶,
                l̶i̶b̶e̶f̶p̶, m̶d̶i̶, m̶p̶2̶d̶, m̶r̶c̶c̶, ooo, o̶p̶e̶n̶f̶e̶r̶m̶i̶o̶n̶p̶s̶i̶4̶,
                pcmsolver, p̶s̶i̶4̶f̶o̶c̶k̶c̶i̶, p̶s̶i̶x̶a̶s̶, p̶y̶e̶i̶n̶s̶u̶m̶s̶, r̶e̶s̶p̶,
                s̶i̶m̶i̶n̶t̶, s̶n̶s̶m̶p̶2̶, v̶2̶r̶d̶m̶_̶c̶a̶s̶s̶c̶f̶

  ==> Input File <==

--------------------------------------------------------------------------
memory 6 GB
molecule mol {
0 1
O -1.74355934695211 0.45459344523518 0.00000000000000
C -1.17609418997436 -0.60360525822161 0.00000000000000
O 0.15223864158340 -0.78321447890126 0.00000000000000
C 0.95517382046411 0.41642660325688 0.00000000000000
H -1.66949463891814 -1.58441007917714 0.00000000000000
H 1.98651865045411 0.07517554290843 0.00000000000000
H 0.74760853167148 1.01251711244977 0.88857057951392
H 0.74760853167148 1.01251711244977 -0.88857057951392
units angstrom
no_reorient
no_com
}
set basis def2-TZVP
set scf_type df
set freeze_core true
energy('b3lyp-d3bj')
--------------------------------------------------------------------------

  Memory set to   5.588 GiB by Python driver.

Scratch directory: /tmp/
   => Libint2 <=

    Primary   basis highest AM E, G, H:  7, 6, 3
    Auxiliary basis highest AM E, G, H:  7, 7, 4
    Onebody   basis highest AM E, G, H:  -, -, -
    Solid Harmonics ordering:            Gaussian

*** tstart() called on choehoyun-ui-MacBookAir.local
*** at Sun Aug  9 01:29:16 2026

   => Loading Basis Set <=

    Name: DEF2-TZVP
    Role: ORBITAL
    Keyword: BASIS
    atoms 1, 3 entry O          line   189 file /Users/hoyoun/micromamba/envs/psi4env/share/psi4/basis/def2-tzvp.gbs 
    atoms 2, 4 entry C          line   123 file /Users/hoyoun/micromamba/envs/psi4env/share/psi4/basis/def2-tzvp.gbs 
    atoms 5-8  entry H          line    15 file /Users/hoyoun/micromamba/envs/psi4env/share/psi4/basis/def2-tzvp.gbs 

   => B3LYP-D3(BJ): Empirical Dispersion <=

    Grimme's -D3 (BJ-damping) Dispersion Correction
    Grimme S.; Ehrlich S.; Goerigk L. (2011), J. Comput. Chem., 32: 1456

        s6 =       1.000000
        s8 =       1.988900
        a1 =       0.398100
        a2 =       4.421100


         ---------------------------------------------------------
                                   SCF
               by Justin Turney, Rob Parrish, Andy Simmonett
                          and Daniel G. A. Smith
                              RKS Reference
                        1 Threads,   5722 MiB Core
         ---------------------------------------------------------

  ==> Geometry <==

    Molecular point group: cs
    Full point group: Cs

    Geometry (in Angstrom), charge = 0, multiplicity = 1:

       Center              X                  Y                   Z               Mass       
    ------------   -----------------  -----------------  -----------------  -----------------
         O           -1.743559346952     0.454593445235     0.000000000000    15.994914619570
         C           -1.176094189974    -0.603605258222     0.000000000000    12.000000000000
         O            0.152238641583    -0.783214478901     0.000000000000    15.994914619570
         C            0.955173820464     0.416426603257     0.000000000000    12.000000000000
         H           -1.669494638918    -1.584410079177     0.000000000000     1.007825032230
         H            1.986518650454     0.075175542908     0.000000000000     1.007825032230
         H            0.747608531671     1.012517112450     0.888570579514     1.007825032230
         H            0.747608531671     1.012517112450    -0.888570579514     1.007825032230

  Running in cs symmetry.

  Rotational constants: A =      0.65825  B =      0.19556  C =      0.15519 [cm^-1]
  Rotational constants: A =  19733.75538  B =   5862.86969  C =   4652.43093 [MHz]
  Nuclear repulsion =  122.013564724761792

  Charge       = 0
  Multiplicity = 1
  Electrons    = 32
  Nalpha       = 16
  Nbeta        = 16

  ==> Algorithm <==

  SCF Algorithm Type is DF.
  DIIS enabled.
  MOM disabled.
  Fractional occupation disabled.
  Guess Type is SAD.
  Energy threshold   = 1.00e-06
  Density threshold  = 1.00e-06
  Integral threshold = 1.00e-12

  ==> Primary Basis <==

  Basis Set: DEF2-TZVP
    Blend: DEF2-TZVP
    Number of shells: 60
    Number of basis functions: 148
    Number of Cartesian functions: 168
    Spherical Harmonics?: true
    Max angular momentum: 3

  ==> DFT Potential <==

   => LibXC <=

    Version 7.1.2
    S. Lehtola, C. Steigemann, M. J. T. Oliveira, and M. A. L. Marques,  SoftwareX 7, 1–5 (2018) (10.1016/j.softx.2017.11.002)

   => Composite Functional: B3LYP-D3BJ2B <= 

    B3LYP-d3bj2b Hyb-GGA Exchange-Correlation Functional

    P. J. Stephens, F. J. Devlin, C. F. Chabalowski, and M. J. Frisch,  J. Phys. Chem. 98, 11623 (1994) (10.1021/j100096a001)

    Deriv               =              1
    GGA                 =           TRUE
    Meta                =          FALSE

    Exchange Hybrid     =           TRUE
    MP2 Hybrid          =          FALSE

   => Exchange Functionals <=

    0.0800   Slater exchange
    0.7200         Becke 88

   => Exact (HF) Exchange <=

    0.2000               HF 

   => Correlation Functionals <=

    0.1900   Vosko, Wilk & Nusair (VWN5_RPA)
    0.8100   Lee, Yang & Parr

   => LibXC Density Thresholds  <==

    XC_HYB_GGA_XC_B3LYP:  1.00E-15 

   => Molecular Quadrature <=

    Radial Scheme          =       TREUTLER
    Pruning Scheme         =           NONE
    Nuclear Scheme         =       TREUTLER

    Blocking Scheme        =         OCTREE
    BS radius alpha        =              1
    Pruning alpha          =              1
    Radial Points          =             75
    Spherical Points       =            302
    Total Points           =         173084
    Total Blocks           =           1342
    Max Points             =            256
    Max Functions          =            146
    Weights Tolerance      =       1.00E-15

   => Loading Basis Set <=

    Name: (DEF2-TZVP AUX)
    Role: JKFIT
    Keyword: DF_BASIS_SCF
    atoms 1, 3 entry O          line   318 file /Users/hoyoun/micromamba/envs/psi4env/share/psi4/basis/def2-universal-jkfit.gbs 
    atoms 2, 4 entry C          line   198 file /Users/hoyoun/micromamba/envs/psi4env/share/psi4/basis/def2-universal-jkfit.gbs 
    atoms 5-8  entry H          line    18 file /Users/hoyoun/micromamba/envs/psi4env/share/psi4/basis/def2-universal-jkfit.gbs 

  ==> Integral Setup <==

  DFHelper Memory: AOs need 0.066 GiB; user supplied 3.589 GiB. 
  SCF_SUBTYPE=INCORE selected. In-core MEM_DF algorithm will be used.
  Using in-core AOs.

  ==> MemDFJK: Density-Fitted J/K Matrices <==

    J tasked:                   Yes
    K tasked:                   Yes
    wK tasked:                   No
    OpenMP threads:               1
    Memory [MiB]:              3675
    Algorithm:                 Core
    Schwarz Cutoff:           1E-12
    Mask sparsity (%):       0.8309
    Fitting Condition:        1E-10

   => Auxiliary Basis Set <=

  Basis Set: (DEF2-TZVP AUX)
    Blend: DEF2-UNIVERSAL-JKFIT
    Number of shells: 124
    Number of basis functions: 376
    Number of Cartesian functions: 444
    Spherical Harmonics?: true
    Max angular momentum: 4

  Cached 100.0% of DFT collocation blocks in 0.602 [GiB].

  Minimum eigenvalue in the overlap matrix is 1.1082121574E-03.
  Reciprocal condition number of the overlap matrix is 1.5616483486E-04.
    Using symmetric orthogonalization.

  ==> Pre-Iterations <==

  SCF Guess: Superposition of Atomic Densities via on-the-fly atomic UHF (no occupation information).

   -------------------------
    Irrep   Nso     Nmo    
   -------------------------
     A'       100     100 
     A"        48      48 
   -------------------------
    Total     148     148
   -------------------------

  ==> Iterations <==

                           Total Energy        Delta E     RMS |[F,P]|

   @DF-RKS iter SAD:  -228.55504407675184   -2.28555e+02   0.00000e+00 
   @DF-RKS iter   1:  -228.91164480517321   -3.56601e-01   7.24972e-03 DIIS/ADIIS
   @DF-RKS iter   2:  -228.63782272217844    2.73822e-01   1.04239e-02 DIIS/ADIIS
   @DF-RKS iter   3:  -229.14165091311480   -5.03828e-01   2.49008e-03 DIIS/ADIIS
   @DF-RKS iter   4:  -229.16895977660835   -2.73089e-02   7.81044e-04 DIIS/ADIIS
   @DF-RKS iter   5:  -229.17122702568761   -2.26725e-03   3.47886e-04 DIIS/ADIIS
   @DF-RKS iter   6:  -229.17173583817299   -5.08812e-04   5.85528e-05 DIIS
   @DF-RKS iter   7:  -229.17175121739692   -1.53792e-05   1.19807e-05 DIIS
   @DF-RKS iter   8:  -229.17175187729458   -6.59898e-07   4.20859e-06 DIIS
   @DF-RKS iter   9:  -229.17175196970419   -9.24096e-08   3.65042e-07 DIIS
  Energy and wave function converged.


  ==> Post-Iterations <==

   Electrons on quadrature grid:
      Ntotal   =   32.0000136034 ; deviation = 1.360e-05 

    Orbital Energies [Eh]
    ---------------------

    Doubly Occupied:                                                      

       1Ap   -19.187193     2Ap   -19.128124     3Ap   -10.306926  
       4Ap   -10.236010     5Ap    -1.117578     6Ap    -1.033827  
       7Ap    -0.747930     8Ap    -0.606223     9Ap    -0.541097  
       1App   -0.494353    10Ap    -0.484655    11Ap    -0.435146  
       2App   -0.409561    12Ap    -0.374749     3App   -0.323057  
      13Ap    -0.297163  

    Virtual:                                                              

       4App   -0.010760    14Ap     0.045548    15Ap     0.066528  
      16Ap     0.080374    17Ap     0.099729     5App    0.115380  
      18Ap     0.144800     6App    0.188396    19Ap     0.188410  
       7App    0.225184    20Ap     0.230228    21Ap     0.287912  
      22Ap     0.311990    23Ap     0.338492    24Ap     0.370599  
      25Ap     0.393211    26Ap     0.422974     8App    0.433071  
      27Ap     0.436668    28Ap     0.493055     9App    0.509250  
      29Ap     0.512491    10App    0.528716    30Ap     0.547458  
      31Ap     0.573552    11App    0.618212    32Ap     0.638645  
      12App    0.745949    33Ap     0.750773    34Ap     0.803974  
      35Ap     0.840306    13App    0.867729    36Ap     0.905492  
      14App    0.979631    37Ap     1.001403    38Ap     1.022317  
      39Ap     1.114690    40Ap     1.202730    15App    1.317766  
      41Ap     1.343636    42Ap     1.442698    43Ap     1.452635  
      16App    1.462393    17App    1.471088    18App    1.506878  
      44Ap     1.537286    19App    1.563080    45Ap     1.570149  
      46Ap     1.675849    47Ap     1.739178    48Ap     1.747615  
      20App    1.804989    49Ap     1.847042    21App    1.900950  
      50Ap     1.931585    51Ap     2.003379    22App    2.016795  
      23App    2.065343    52Ap     2.072566    53Ap     2.102222  
      54Ap     2.180541    55Ap     2.211867    24App    2.220723  
      56Ap     2.305518    25App    2.365334    57Ap     2.377448  
      26App    2.500705    58Ap     2.502441    59Ap     2.520154  
      60Ap     2.599751    27App    2.618210    61Ap     2.668161  
      28App    2.677109    62Ap     2.749384    63Ap     2.837767  
      29App    2.936883    64Ap     2.957575    30App    2.967164  
      65Ap     3.005561    66Ap     3.011850    31App    3.012677  
      67Ap     3.120645    32App    3.137843    68Ap     3.171756  
      69Ap     3.214805    33App    3.273216    70Ap     3.277266  
      34App    3.366031    71Ap     3.377826    72Ap     3.380541  
      35App    3.422261    73Ap     3.512162    36App    3.563870  
      74Ap     3.584399    37App    3.633531    75Ap     3.757085  
      76Ap     3.965429    77Ap     4.062605    38App    4.147689  
      78Ap     4.237871    79Ap     4.333094    80Ap     4.401370  
      81Ap     4.431602    82Ap     4.608643    39App    5.137725  
      83Ap     5.167647    40App    5.254498    84Ap     5.326489  
      41App    5.447387    85Ap     5.598290    42App    5.631229  
      86Ap     5.782155    43App    5.944203    87Ap     5.975984  
      88Ap     6.062063    44App    6.126486    45App    6.301711  
      89Ap     6.384399    90Ap     6.422481    91Ap     6.573620  
      46App    6.610748    92Ap     6.712927    47App    6.728241  
      48App    6.833199    93Ap     6.874699    94Ap     7.063354  
      95Ap     7.152120    96Ap     7.239950    97Ap    22.248200  
      98Ap    22.917760    99Ap    43.682275   100Ap    43.873499  

    Final Occupation by Irrep:
             Ap   App 
    DOCC [    13,    3 ]
    NA   [    13,    3 ]
    NB   [    13,    3 ]

  @DF-RKS Final Energy:  -229.17175196970419

   => Energetics <=

    Nuclear Repulsion Energy =            122.0135647247617925
    One-Electron Energy =                -553.7461121211987347
    Two-Electron Energy =                 226.4560680417734204
    DFT Exchange-Correlation Energy =     -23.8884201355825816
    Empirical Dispersion Energy =          -0.0068524794580989
    VV10 Nonlocal Energy =                  0.0000000000000000
    Total Energy =                       -229.1717519697041894

Computation Completed


Properties will be evaluated at   0.000000,   0.000000,   0.000000 [a0]

Properties computed using the SCF density matrix


 Multipole Moments:

 ------------------------------------------------------------------------------------
     Multipole            Electronic (a.u.)      Nuclear  (a.u.)        Total (a.u.)
 ------------------------------------------------------------------------------------

 L = 1.  Multiply by 2.5417464519 to convert [e a0] to [Debye]
 Dipole X            :         23.8557036          -23.1375171            0.7181865
 Dipole Y            :          5.8353399           -6.1156082           -0.2802683
 Dipole Z            :          0.0000000            0.0000000            0.0000000
 Magnitude           :                                                    0.7709359

 ------------------------------------------------------------------------------------

*** tstop() called on choehoyun-ui-MacBookAir.local at Sun Aug  9 01:29:32 2026
Module time:
	user time   =       7.77 seconds =       0.13 minutes
	system time =       2.52 seconds =       0.04 minutes
	total time  =         16 seconds =       0.27 minutes
Total time:
	user time   =       7.77 seconds =       0.13 minutes
	system time =       2.52 seconds =       0.04 minutes
	total time  =         16 seconds =       0.27 minutes

    Psi4 stopped on: Sunday, 09 August 2026 01:29AM
    Psi4 wall time for execution: 0:00:16.08

*** Psi4 exiting successfully. Buy a developer a beer!
