
    -----------------------------------------------------------------------
          Psi4: An Open-Source Ab Initio Electronic Structure Package
                               Psi4 1.11 release

                         Git: Rev {} zzzzzzz 


    D. G. A. Smith, L. A. Burns, A. C. Simmonett, R. M. Parrish,
    M. C. Schieber, R. Galvelis, P. Kraus, H. Kruse, R. Di Remigio,
    A. Alenaizan, A. M. James, S. Lehtola, J. P. Misiewicz, M. Scheurer,
    R. A. Shaw, J. B. Schriber, Y. Xie, Z. L. Glick, D. A. Sirianni,
    J. S. O'Brien, J. M. Waldrop, A. Kumar, E. G. Hohenstein,
    B. P. Pritchard, B. R. Brooks, H. F. Schaefer III, A. Yu. Sokolov,
    K. Patkowski, A. E. DePrince III, U. Bozkaya, R. A. King,
    F. A. Evangelista, J. M. Turney, T. D. Crawford, C. D. Sherrill,
    J. Chem. Phys. 152(18) 184108 (2020). https://doi.org/10.1063/5.0006002

                            Additional Code Authors
    E. T. Seidl, C. L. Janssen, E. F. Valeev, M. L. Leininger,
    J. F. Gonthier, R. M. Richard, H. R. McAlexander, M. Saitow, X. Wang,
    P. Verma, M. H. Lechner, A. Jiang, S. Behnle, A. G. Heide,
    M. F. Herbst, D. L. Poole, T. Győri, E. C. Mitchell, J. P. Pederson,
    and A. M. Wallace

             Previous Authors, Complete List of Code Contributors,
                       and Citations for Specific Modules
    https://github.com/psi4/psi4/blob/master/codemeta.json
    https://github.com/psi4/psi4/graphs/contributors
    https://psicode.org/psi4manual/master/introduction.html#citing-psifour

    -----------------------------------------------------------------------


    Psi4 started on: Sunday, 09 August 2026 01:09AM

    Process ID: 41137
    Host:       choehoyun-ui-MacBookAir.local
    PSIDATADIR: /Users/hoyoun/micromamba/envs/psi4env/share/psi4
    Memory:     500.0 MiB
    Threads:    1
    Addons:     a̶d̶c̶c̶, a̶m̶b̶i̶t̶, b̶s̶e̶, c̶c̶t̶3̶, c̶f̶o̶u̶r̶, c̶h̶e̶m̶p̶s̶2̶, c̶p̶p̶e̶, d̶d̶x̶, dftd3,
                d̶f̶t̶d̶4̶, dkh, ecpint, einsums, f̶o̶r̶t̶e̶, gauxc, g̶c̶p̶, g̶d̶m̶a̶,
                g̶e̶o̶m̶e̶t̶r̶i̶c̶, g̶p̶u̶_̶d̶f̶c̶c̶, i̶n̶t̶e̶g̶r̶a̶t̶o̶r̶x̶x̶, i̶p̶i̶,
                l̶i̶b̶e̶f̶p̶, m̶d̶i̶, m̶p̶2̶d̶, m̶r̶c̶c̶, ooo, o̶p̶e̶n̶f̶e̶r̶m̶i̶o̶n̶p̶s̶i̶4̶,
                pcmsolver, p̶s̶i̶4̶f̶o̶c̶k̶c̶i̶, p̶s̶i̶x̶a̶s̶, p̶y̶e̶i̶n̶s̶u̶m̶s̶, r̶e̶s̶p̶,
                s̶i̶m̶i̶n̶t̶, s̶n̶s̶m̶p̶2̶, v̶2̶r̶d̶m̶_̶c̶a̶s̶s̶c̶f̶

  ==> Input File <==

--------------------------------------------------------------------------
memory 6 GB
molecule mol {
0 1
N 1.32360317288926 -0.04093706799538 0.00000000000000
C 0.48162185424581 0.25020318529243 1.16304798473423
C -0.86626092944160 -0.38758822468470 0.77795979685627
C -0.86626092944160 -0.38758822468470 -0.77795979685627
C 0.48162185424581 0.25020318529243 -1.16304798473423
H 2.18783371079371 0.48830811438451 0.00000000000000
H 0.91114934857710 -0.17662475769265 2.07157071942802
H 0.34818245715545 1.33308654450287 1.32781273252246
H -1.70638393769280 0.16626836350501 1.19918491866244
H -0.92402723468544 -1.40903063411753 1.15578823933472
H -0.92402723468544 -1.40903063411753 -1.15578823933472
H -1.70638393769280 0.16626836350501 -1.19918491866244
H 0.91114934857710 -0.17662475769265 -2.07157071942802
H 0.34818245715545 1.33308654450287 -1.32781273252246
units angstrom
no_reorient
no_com
}
set basis def2-TZVP
set scf_type df
set freeze_core true
energy('b3lyp-d3bj')
--------------------------------------------------------------------------

  Memory set to   5.588 GiB by Python driver.

Scratch directory: /tmp/
   => Libint2 <=

    Primary   basis highest AM E, G, H:  7, 6, 3
    Auxiliary basis highest AM E, G, H:  7, 7, 4
    Onebody   basis highest AM E, G, H:  -, -, -
    Solid Harmonics ordering:            Gaussian

*** tstart() called on choehoyun-ui-MacBookAir.local
*** at Sun Aug  9 01:09:29 2026

   => Loading Basis Set <=

    Name: DEF2-TZVP
    Role: ORBITAL
    Keyword: BASIS
    atoms 1    entry N          line   156 file /Users/hoyoun/micromamba/envs/psi4env/share/psi4/basis/def2-tzvp.gbs 
    atoms 2-5  entry C          line   123 file /Users/hoyoun/micromamba/envs/psi4env/share/psi4/basis/def2-tzvp.gbs 
    atoms 6-14 entry H          line    15 file /Users/hoyoun/micromamba/envs/psi4env/share/psi4/basis/def2-tzvp.gbs 

   => B3LYP-D3(BJ): Empirical Dispersion <=

    Grimme's -D3 (BJ-damping) Dispersion Correction
    Grimme S.; Ehrlich S.; Goerigk L. (2011), J. Comput. Chem., 32: 1456

        s6 =       1.000000
        s8 =       1.988900
        a1 =       0.398100
        a2 =       4.421100


         ---------------------------------------------------------
                                   SCF
               by Justin Turney, Rob Parrish, Andy Simmonett
                          and Daniel G. A. Smith
                              RKS Reference
                        1 Threads,   5722 MiB Core
         ---------------------------------------------------------

  ==> Geometry <==

    Molecular point group: cs
    Full point group: Cs

    Geometry (in Angstrom), charge = 0, multiplicity = 1:

       Center              X                  Y                   Z               Mass       
    ------------   -----------------  -----------------  -----------------  -----------------
         N            1.323603172889    -0.040937067995     0.000000000000    14.003074004430
         C            0.481621854246     0.250203185292     1.163047984734    12.000000000000
         C           -0.866260929442    -0.387588224685     0.777959796856    12.000000000000
         C           -0.866260929442    -0.387588224685    -0.777959796856    12.000000000000
         C            0.481621854246     0.250203185292    -1.163047984734    12.000000000000
         H            2.187833710794     0.488308114385     0.000000000000     1.007825032230
         H            0.911149348577    -0.176624757693     2.071570719428     1.007825032230
         H            0.348182457155     1.333086544503     1.327812732522     1.007825032230
         H           -1.706383937693     0.166268363505     1.199184918662     1.007825032230
         H           -0.924027234685    -1.409030634118     1.155788239335     1.007825032230
         H           -0.924027234685    -1.409030634118    -1.155788239335     1.007825032230
         H           -1.706383937693     0.166268363505    -1.199184918662     1.007825032230
         H            0.911149348577    -0.176624757693    -2.071570719428     1.007825032230
         H            0.348182457155     1.333086544503    -1.327812732522     1.007825032230

  Running in cs symmetry.

  Rotational constants: A =      0.22720  B =      0.22324  C =      0.12880 [cm^-1]
  Rotational constants: A =   6811.18610  B =   6692.42158  C =   3861.21832 [MHz]
  Nuclear repulsion =  190.022047529665826

  Charge       = 0
  Multiplicity = 1
  Electrons    = 40
  Nalpha       = 20
  Nbeta        = 20

  ==> Algorithm <==

  SCF Algorithm Type is DF.
  DIIS enabled.
  MOM disabled.
  Fractional occupation disabled.
  Guess Type is SAD.
  Energy threshold   = 1.00e-06
  Density threshold  = 1.00e-06
  Integral threshold = 1.00e-12

  ==> Primary Basis <==

  Basis Set: DEF2-TZVP
    Blend: DEF2-TZVP
    Number of shells: 91
    Number of basis functions: 209
    Number of Cartesian functions: 234
    Spherical Harmonics?: true
    Max angular momentum: 3

  ==> DFT Potential <==

   => LibXC <=

    Version 7.1.2
    S. Lehtola, C. Steigemann, M. J. T. Oliveira, and M. A. L. Marques,  SoftwareX 7, 1–5 (2018) (10.1016/j.softx.2017.11.002)

   => Composite Functional: B3LYP-D3BJ2B <= 

    B3LYP-d3bj2b Hyb-GGA Exchange-Correlation Functional

    P. J. Stephens, F. J. Devlin, C. F. Chabalowski, and M. J. Frisch,  J. Phys. Chem. 98, 11623 (1994) (10.1021/j100096a001)

    Deriv               =              1
    GGA                 =           TRUE
    Meta                =          FALSE

    Exchange Hybrid     =           TRUE
    MP2 Hybrid          =          FALSE

   => Exchange Functionals <=

    0.0800   Slater exchange
    0.7200         Becke 88

   => Exact (HF) Exchange <=

    0.2000               HF 

   => Correlation Functionals <=

    0.1900   Vosko, Wilk & Nusair (VWN5_RPA)
    0.8100   Lee, Yang & Parr

   => LibXC Density Thresholds  <==

    XC_HYB_GGA_XC_B3LYP:  1.00E-15 

   => Molecular Quadrature <=

    Radial Scheme          =       TREUTLER
    Pruning Scheme         =           NONE
    Nuclear Scheme         =       TREUTLER

    Blocking Scheme        =         OCTREE
    BS radius alpha        =              1
    Pruning alpha          =              1
    Radial Points          =             75
    Spherical Points       =            302
    Total Points           =         296466
    Total Blocks           =           2252
    Max Points             =            256
    Max Functions          =            206
    Weights Tolerance      =       1.00E-15

   => Loading Basis Set <=

    Name: (DEF2-TZVP AUX)
    Role: JKFIT
    Keyword: DF_BASIS_SCF
    atoms 1    entry N          line   258 file /Users/hoyoun/micromamba/envs/psi4env/share/psi4/basis/def2-universal-jkfit.gbs 
    atoms 2-5  entry C          line   198 file /Users/hoyoun/micromamba/envs/psi4env/share/psi4/basis/def2-universal-jkfit.gbs 
    atoms 6-14 entry H          line    18 file /Users/hoyoun/micromamba/envs/psi4env/share/psi4/basis/def2-universal-jkfit.gbs 

  ==> Integral Setup <==

  DFHelper Memory: AOs need 0.186 GiB; user supplied 2.689 GiB. 
  SCF_SUBTYPE=INCORE selected. In-core MEM_DF algorithm will be used.
  Using in-core AOs.

  ==> MemDFJK: Density-Fitted J/K Matrices <==

    J tasked:                   Yes
    K tasked:                   Yes
    wK tasked:                   No
    OpenMP threads:               1
    Memory [MiB]:              2753
    Algorithm:                 Core
    Schwarz Cutoff:           1E-12
    Mask sparsity (%):       0.4533
    Fitting Condition:        1E-10

   => Auxiliary Basis Set <=

  Basis Set: (DEF2-TZVP AUX)
    Blend: DEF2-UNIVERSAL-JKFIT
    Number of shells: 179
    Number of basis functions: 539
    Number of Cartesian functions: 629
    Spherical Harmonics?: true
    Max angular momentum: 4

  Cached 100.0% of DFT collocation blocks in 1.502 [GiB].

  Minimum eigenvalue in the overlap matrix is 1.7751898228E-04.
  Reciprocal condition number of the overlap matrix is 1.8883906368E-05.
    Using symmetric orthogonalization.

  ==> Pre-Iterations <==

  SCF Guess: Superposition of Atomic Densities via on-the-fly atomic UHF (no occupation information).

   -------------------------
    Irrep   Nso     Nmo    
   -------------------------
     A'       112     112 
     A"        97      97 
   -------------------------
    Total     209     209
   -------------------------

  ==> Iterations <==

                           Total Energy        Delta E     RMS |[F,P]|

   @DF-RKS iter SAD:  -212.27078633503527   -2.12271e+02   0.00000e+00 
   @DF-RKS iter   1:  -212.07215365718818    1.98633e-01   7.43284e-03 DIIS/ADIIS
   @DF-RKS iter   2:  -211.09262424323697    9.79529e-01   1.19031e-02 DIIS/ADIIS
   @DF-RKS iter   3:  -212.67576837364621   -1.58314e+00   9.51666e-04 DIIS/ADIIS
   @DF-RKS iter   4:  -212.67965408826669   -3.88571e-03   7.06140e-04 DIIS/ADIIS
   @DF-RKS iter   5:  -212.68397048361555   -4.31640e-03   1.63578e-04 DIIS/ADIIS
   @DF-RKS iter   6:  -212.68421786524760   -2.47382e-04   1.49323e-05 DIIS
   @DF-RKS iter   7:  -212.68422032170568   -2.45646e-06   2.85877e-06 DIIS
   @DF-RKS iter   8:  -212.68422038631076   -6.46051e-08   1.42017e-06 DIIS
   @DF-RKS iter   9:  -212.68422040679411   -2.04834e-08   1.88500e-07 DIIS
  Energy and wave function converged.


  ==> Post-Iterations <==

   Electrons on quadrature grid:
      Ntotal   =   40.0000162665 ; deviation = 1.627e-05 

    Orbital Energies [Eh]
    ---------------------

    Doubly Occupied:                                                      

       1Ap   -14.294734     1App  -10.187731     2Ap   -10.187715  
       3Ap   -10.164217     2App  -10.164043     4Ap    -0.913062  
       5Ap    -0.756024     3App   -0.718774     6Ap    -0.590441  
       4App   -0.572602     7Ap    -0.512512     8Ap    -0.482871  
       5App   -0.430293     9Ap    -0.397639     6App   -0.371779  
      10Ap    -0.371225     7App   -0.343273    11Ap    -0.340693  
       8App   -0.320066    12Ap    -0.225866  

    Virtual:                                                              

      13Ap     0.028797    14Ap     0.057351     9App    0.072618  
      15Ap     0.073635    16Ap     0.090587    10App    0.103378  
      11App    0.113599    17Ap     0.116971    18Ap     0.144305  
      12App    0.158036    19Ap     0.163510    13App    0.174738  
      14App    0.204938    20Ap     0.208129    21Ap     0.231036  
      15App    0.241611    16App    0.255135    22Ap     0.266849  
      17App    0.297441    23Ap     0.328722    24Ap     0.365147  
      25Ap     0.370215    18App    0.392138    26Ap     0.394551  
      27Ap     0.400693    19App    0.404330    20App    0.424848  
      28Ap     0.429284    29Ap     0.430444    21App    0.437680  
      30Ap     0.443246    22App    0.451516    23App    0.471114  
      31Ap     0.483861    24App    0.494206    32Ap     0.500129  
      25App    0.534621    33Ap     0.580947    34Ap     0.600089  
      26App    0.632363    35Ap     0.646216    27App    0.652482  
      36Ap     0.707378    28App    0.761447    37Ap     0.828190  
      29App    0.865826    38Ap     0.867534    39Ap     0.907584  
      30App    0.925454    40Ap     0.948097    41Ap     0.959227  
      31App    0.993280    32App    1.010644    42Ap     1.038459  
      43Ap     1.052222    33App    1.062124    34App    1.105588  
      44Ap     1.131321    35App    1.169053    36App    1.190847  
      45Ap     1.192906    37App    1.231346    38App    1.275159  
      46Ap     1.314852    47Ap     1.393394    48Ap     1.451805  
      49Ap     1.466893    39App    1.494353    40App    1.506692  
      50Ap     1.547195    51Ap     1.563551    41App    1.580831  
      52Ap     1.598998    42App    1.613312    43App    1.622292  
      53Ap     1.680203    54Ap     1.693223    44App    1.699659  
      55Ap     1.757781    56Ap     1.768539    45App    1.769113  
      46App    1.815426    47App    1.823708    57Ap     1.861991  
      58Ap     1.890129    59Ap     1.918160    60Ap     1.930889  
      61Ap     1.954977    48App    1.978930    62Ap     2.044097  
      49App    2.051398    63Ap     2.068810    50App    2.187002  
      51App    2.209053    64Ap     2.211591    52App    2.244438  
      53App    2.286296    65Ap     2.320624    54App    2.368424  
      66Ap     2.389759    67Ap     2.396264    55App    2.419864  
      68Ap     2.440619    69Ap     2.486832    56App    2.511511  
      57App    2.542039    70Ap     2.544372    58App    2.578747  
      71Ap     2.613937    72Ap     2.622542    59App    2.642084  
      60App    2.661358    73Ap     2.662510    74Ap     2.725771  
      61App    2.753691    75Ap     2.779596    76Ap     2.801226  
      62App    2.823100    63App    2.872891    77Ap     2.893311  
      64App    2.919703    78Ap     2.946741    79Ap     2.990053  
      65App    3.026473    80Ap     3.057631    66App    3.079871  
      81Ap     3.118679    67App    3.138306    82Ap     3.142824  
      83Ap     3.168116    68App    3.183851    69App    3.229176  
      84Ap     3.234321    85Ap     3.259771    70App    3.302396  
      86Ap     3.334103    71App    3.334625    87Ap     3.354708  
      88Ap     3.410633    72App    3.422764    73App    3.461835  
      74App    3.505677    89Ap     3.523102    90Ap     3.539899  
      75App    3.548031    91Ap     3.566806    76App    3.601166  
      92Ap     3.672903    77App    3.688028    93Ap     3.786069  
      78App    3.807297    94Ap     3.827810    95Ap     3.865004  
      79App    3.886410    80App    3.959082    81App    3.972123  
      96Ap     4.006303    97Ap     4.066166    82App    4.126638  
      83App    4.174881    98Ap     4.200169    99Ap     4.251564  
      84App    4.257835    85App    4.348005   100Ap     4.361596  
      86App    4.371383   101Ap     4.468575    87App    4.603810  
      88App    4.645342   102Ap     4.688091   103Ap     4.755804  
      89App    4.795496   104Ap     4.829745    90App    4.917868  
      91App    4.974008   105Ap     5.030853   106Ap     5.073423  
      92App    5.075931    93App    5.239745   107Ap     5.276460  
      94App    5.429286   108Ap     5.505064    95App    5.595937  
     109Ap     5.844620   110Ap    22.279827   111Ap    22.415810  
      96App   22.490232    97App   22.542017   112Ap    32.176045  

    Final Occupation by Irrep:
             Ap   App 
    DOCC [    12,    8 ]
    NA   [    12,    8 ]
    NB   [    12,    8 ]

  @DF-RKS Final Energy:  -212.68422040679411

   => Energetics <=

    Nuclear Repulsion Energy =            190.0220475296658265
    One-Electron Energy =                -662.0311098372010292
    Two-Electron Energy =                 285.2944574764949266
    DFT Exchange-Correlation Energy =     -25.9519773981823114
    Empirical Dispersion Energy =          -0.0176381775715440
    VV10 Nonlocal Energy =                  0.0000000000000000
    Total Energy =                       -212.6842204067941395

Computation Completed


Properties will be evaluated at   0.000000,   0.000000,   0.000000 [a0]

Properties computed using the SCF density matrix


 Multipole Moments:

 ------------------------------------------------------------------------------------
     Multipole            Electronic (a.u.)      Nuclear  (a.u.)        Total (a.u.)
 ------------------------------------------------------------------------------------

 L = 1.  Multiply by 2.5417464519 to convert [e a0] to [Debye]
 Dipole X            :         -7.8072605            7.7388599           -0.0684006
 Dipole Y            :          3.4141503           -3.0603601            0.3537902
 Dipole Z            :          0.0000000            0.0000000            0.0000000
 Magnitude           :                                                    0.3603417

 ------------------------------------------------------------------------------------

*** tstop() called on choehoyun-ui-MacBookAir.local at Sun Aug  9 01:10:12 2026
Module time:
	user time   =      31.48 seconds =       0.52 minutes
	system time =       4.46 seconds =       0.07 minutes
	total time  =         43 seconds =       0.72 minutes
Total time:
	user time   =      31.48 seconds =       0.52 minutes
	system time =       4.46 seconds =       0.07 minutes
	total time  =         43 seconds =       0.72 minutes

    Psi4 stopped on: Sunday, 09 August 2026 01:10AM
    Psi4 wall time for execution: 0:00:43.10

*** Psi4 exiting successfully. Buy a developer a beer!
