
    -----------------------------------------------------------------------
          Psi4: An Open-Source Ab Initio Electronic Structure Package
                               Psi4 1.11 release

                         Git: Rev {} zzzzzzz 


    D. G. A. Smith, L. A. Burns, A. C. Simmonett, R. M. Parrish,
    M. C. Schieber, R. Galvelis, P. Kraus, H. Kruse, R. Di Remigio,
    A. Alenaizan, A. M. James, S. Lehtola, J. P. Misiewicz, M. Scheurer,
    R. A. Shaw, J. B. Schriber, Y. Xie, Z. L. Glick, D. A. Sirianni,
    J. S. O'Brien, J. M. Waldrop, A. Kumar, E. G. Hohenstein,
    B. P. Pritchard, B. R. Brooks, H. F. Schaefer III, A. Yu. Sokolov,
    K. Patkowski, A. E. DePrince III, U. Bozkaya, R. A. King,
    F. A. Evangelista, J. M. Turney, T. D. Crawford, C. D. Sherrill,
    J. Chem. Phys. 152(18) 184108 (2020). https://doi.org/10.1063/5.0006002

                            Additional Code Authors
    E. T. Seidl, C. L. Janssen, E. F. Valeev, M. L. Leininger,
    J. F. Gonthier, R. M. Richard, H. R. McAlexander, M. Saitow, X. Wang,
    P. Verma, M. H. Lechner, A. Jiang, S. Behnle, A. G. Heide,
    M. F. Herbst, D. L. Poole, T. Győri, E. C. Mitchell, J. P. Pederson,
    and A. M. Wallace

             Previous Authors, Complete List of Code Contributors,
                       and Citations for Specific Modules
    https://github.com/psi4/psi4/blob/master/codemeta.json
    https://github.com/psi4/psi4/graphs/contributors
    https://psicode.org/psi4manual/master/introduction.html#citing-psifour

    -----------------------------------------------------------------------


    Psi4 started on: Sunday, 09 August 2026 04:20PM

    Process ID: 61799
    Host:       choehoyun-ui-MacBookAir.local
    PSIDATADIR: /Users/hoyoun/micromamba/envs/psi4env/share/psi4
    Memory:     500.0 MiB
    Threads:    8
    Addons:     a̶d̶c̶c̶, a̶m̶b̶i̶t̶, b̶s̶e̶, c̶c̶t̶3̶, c̶f̶o̶u̶r̶, c̶h̶e̶m̶p̶s̶2̶, c̶p̶p̶e̶, d̶d̶x̶, dftd3,
                d̶f̶t̶d̶4̶, dkh, ecpint, einsums, f̶o̶r̶t̶e̶, gauxc, g̶c̶p̶, g̶d̶m̶a̶,
                g̶e̶o̶m̶e̶t̶r̶i̶c̶, g̶p̶u̶_̶d̶f̶c̶c̶, i̶n̶t̶e̶g̶r̶a̶t̶o̶r̶x̶x̶, i̶p̶i̶,
                l̶i̶b̶e̶f̶p̶, m̶d̶i̶, m̶p̶2̶d̶, m̶r̶c̶c̶, ooo, o̶p̶e̶n̶f̶e̶r̶m̶i̶o̶n̶p̶s̶i̶4̶,
                pcmsolver, p̶s̶i̶4̶f̶o̶c̶k̶c̶i̶, p̶s̶i̶x̶a̶s̶, p̶y̶e̶i̶n̶s̶u̶m̶s̶, r̶e̶s̶p̶,
                s̶i̶m̶i̶n̶t̶, s̶n̶s̶m̶p̶2̶, v̶2̶r̶d̶m̶_̶c̶a̶s̶s̶c̶f̶

  ==> Input File <==

--------------------------------------------------------------------------
memory 3 GB
molecule mol {
0 1
C 0.00000000000000 0.43744196909276 0.00000000000000
C -1.38883790132665 0.82640394110743 0.00000000000000
C -0.49515896499973 1.78772187301932 0.00000000000000
C 0.96338193153024 -0.47044396667721 0.00000000000000
C 0.71722394919646 -1.95178786118587 0.00000000000000
H -2.42873982753551 0.55266296072917 0.00000000000000
H -0.29675897882432 2.84485779815305 0.00000000000000
H 1.99155585879193 -0.12855799093575 0.00000000000000
H 1.15276091790155 -2.43685482674106 0.87855093781564
H -0.35123497492702 -2.17126784592880 0.00000000000000
H 1.15276091790155 -2.43685482674106 -0.87855093781564
units angstrom
no_reorient
no_com
}
set basis def2-TZVP
set scf_type df
set freeze_core true
set e_convergence 8
energy('b3lyp-d3bj')
--------------------------------------------------------------------------

  Memory set to   2.794 GiB by Python driver.

Scratch directory: /Users/hoyoun/Documents/Yonsei_AX_Camp/(진짜_이게_최종)/calibration/dft_work/_scratch/R20/
   => Libint2 <=

    Primary   basis highest AM E, G, H:  7, 6, 3
    Auxiliary basis highest AM E, G, H:  7, 7, 4
    Onebody   basis highest AM E, G, H:  -, -, -
    Solid Harmonics ordering:            Gaussian

*** tstart() called on choehoyun-ui-MacBookAir.local
*** at Sun Aug  9 16:20:13 2026

   => Loading Basis Set <=

    Name: DEF2-TZVP
    Role: ORBITAL
    Keyword: BASIS
    atoms 1-5  entry C          line   123 file /Users/hoyoun/micromamba/envs/psi4env/share/psi4/basis/def2-tzvp.gbs 
    atoms 6-11 entry H          line    15 file /Users/hoyoun/micromamba/envs/psi4env/share/psi4/basis/def2-tzvp.gbs 

   => B3LYP-D3(BJ): Empirical Dispersion <=

    Grimme's -D3 (BJ-damping) Dispersion Correction
    Grimme S.; Ehrlich S.; Goerigk L. (2011), J. Comput. Chem., 32: 1456

        s6 =       1.000000
        s8 =       1.988900
        a1 =       0.398100
        a2 =       4.421100


         ---------------------------------------------------------
                                   SCF
               by Justin Turney, Rob Parrish, Andy Simmonett
                          and Daniel G. A. Smith
                              RKS Reference
                        8 Threads,   2861 MiB Core
         ---------------------------------------------------------

  ==> Geometry <==

    Molecular point group: cs
    Full point group: Cs

    Geometry (in Angstrom), charge = 0, multiplicity = 1:

       Center              X                  Y                   Z               Mass       
    ------------   -----------------  -----------------  -----------------  -----------------
         C            0.000000000000     0.437441969093     0.000000000000    12.000000000000
         C           -1.388837901327     0.826403941107     0.000000000000    12.000000000000
         C           -0.495158965000     1.787721873019     0.000000000000    12.000000000000
         C            0.963381931530    -0.470443966677     0.000000000000    12.000000000000
         C            0.717223949196    -1.951787861186     0.000000000000    12.000000000000
         H           -2.428739827536     0.552662960729     0.000000000000     1.007825032230
         H           -0.296758978824     2.844857798153     0.000000000000     1.007825032230
         H            1.991555858792    -0.128557990936     0.000000000000     1.007825032230
         H            1.152760917902    -2.436854826741     0.878550937816     1.007825032230
         H           -0.351234974927    -2.171267845929     0.000000000000     1.007825032230
         H            1.152760917902    -2.436854826741    -0.878550937816     1.007825032230

  Running in cs symmetry.

  Rotational constants: A =      0.61173  B =      0.10932  C =      0.09436 [cm^-1]
  Rotational constants: A =  18339.18800  B =   3277.39993  C =   2828.92583 [MHz]
  Nuclear repulsion =  146.060828766031364

  Charge       = 0
  Multiplicity = 1
  Electrons    = 36
  Nalpha       = 18
  Nbeta        = 18

  ==> Algorithm <==

  SCF Algorithm Type is DF.
  DIIS enabled.
  MOM disabled.
  Fractional occupation disabled.
  Guess Type is SAD.
  Energy threshold   = 1.00e-08
  Density threshold  = 1.00e-06
  Integral threshold = 1.00e-12

  ==> Primary Basis <==

  Basis Set: DEF2-TZVP
    Blend: DEF2-TZVP
    Number of shells: 79
    Number of basis functions: 191
    Number of Cartesian functions: 216
    Spherical Harmonics?: true
    Max angular momentum: 3

  ==> DFT Potential <==

   => LibXC <=

    Version 7.1.2
    S. Lehtola, C. Steigemann, M. J. T. Oliveira, and M. A. L. Marques,  SoftwareX 7, 1–5 (2018) (10.1016/j.softx.2017.11.002)

   => Composite Functional: B3LYP-D3BJ2B <= 

    B3LYP-d3bj2b Hyb-GGA Exchange-Correlation Functional

    P. J. Stephens, F. J. Devlin, C. F. Chabalowski, and M. J. Frisch,  J. Phys. Chem. 98, 11623 (1994) (10.1021/j100096a001)

    Deriv               =              1
    GGA                 =           TRUE
    Meta                =          FALSE

    Exchange Hybrid     =           TRUE
    MP2 Hybrid          =          FALSE

   => Exchange Functionals <=

    0.0800   Slater exchange
    0.7200         Becke 88

   => Exact (HF) Exchange <=

    0.2000               HF 

   => Correlation Functionals <=

    0.1900   Vosko, Wilk & Nusair (VWN5_RPA)
    0.8100   Lee, Yang & Parr

   => LibXC Density Thresholds  <==

    XC_HYB_GGA_XC_B3LYP:  1.00E-15 

   => Molecular Quadrature <=

    Radial Scheme          =       TREUTLER
    Pruning Scheme         =           NONE
    Nuclear Scheme         =       TREUTLER

    Blocking Scheme        =         OCTREE
    BS radius alpha        =              1
    Pruning alpha          =              1
    Radial Points          =             75
    Spherical Points       =            302
    Total Points           =         236234
    Total Blocks           =           1808
    Max Points             =            256
    Max Functions          =            188
    Weights Tolerance      =       1.00E-15

   => Loading Basis Set <=

    Name: (DEF2-TZVP AUX)
    Role: JKFIT
    Keyword: DF_BASIS_SCF
    atoms 1-5  entry C          line   198 file /Users/hoyoun/micromamba/envs/psi4env/share/psi4/basis/def2-universal-jkfit.gbs 
    atoms 6-11 entry H          line    18 file /Users/hoyoun/micromamba/envs/psi4env/share/psi4/basis/def2-universal-jkfit.gbs 

  ==> Integral Setup <==

  DFHelper Memory: AOs need 0.139 GiB; user supplied 1.077 GiB. 
  SCF_SUBTYPE=INCORE selected. In-core MEM_DF algorithm will be used.
  Using in-core AOs.

  ==> MemDFJK: Density-Fitted J/K Matrices <==

    J tasked:                   Yes
    K tasked:                   Yes
    wK tasked:                   No
    OpenMP threads:               8
    Memory [MiB]:              1103
    Algorithm:                 Core
    Schwarz Cutoff:           1E-12
    Mask sparsity (%):       2.4944
    Fitting Condition:        1E-10

   => Auxiliary Basis Set <=

  Basis Set: (DEF2-TZVP AUX)
    Blend: DEF2-UNIVERSAL-JKFIT
    Number of shells: 161
    Number of basis functions: 483
    Number of Cartesian functions: 565
    Spherical Harmonics?: true
    Max angular momentum: 4

  Cached 100.0% of DFT collocation blocks in 1.018 [GiB].

  Minimum eigenvalue in the overlap matrix is 6.4737281191E-05.
  Reciprocal condition number of the overlap matrix is 7.7704273218E-06.
    Using symmetric orthogonalization.

  ==> Pre-Iterations <==

  SCF Guess: Superposition of Atomic Densities via on-the-fly atomic UHF (no occupation information).

   -------------------------
    Irrep   Nso     Nmo    
   -------------------------
     A'       131     131 
     A"        60      60 
   -------------------------
    Total     191     191
   -------------------------

  ==> Iterations <==

                           Total Energy        Delta E     RMS |[F,P]|

   @DF-RKS iter SAD:  -193.51845455169871   -1.93518e+02   0.00000e+00 
   @DF-RKS iter   1:  -193.55992807872681   -4.14735e-02   7.08056e-03 DIIS/ADIIS
   @DF-RKS iter   2:  -193.22452316564969    3.35405e-01   8.63092e-03 DIIS/ADIIS
   @DF-RKS iter   3:  -194.09665438086620   -8.72131e-01   9.76585e-04 DIIS/ADIIS
   @DF-RKS iter   4:  -194.10259369167596   -5.93931e-03   6.66984e-04 DIIS/ADIIS
   @DF-RKS iter   5:  -194.10705548440521   -4.46179e-03   1.14309e-04 DIIS/ADIIS
   @DF-RKS iter   6:  -194.10714949222069   -9.40078e-05   6.34133e-05 DIIS
   @DF-RKS iter   7:  -194.10718952079134   -4.00286e-05   8.24736e-06 DIIS
   @DF-RKS iter   8:  -194.10719014019537   -6.19404e-07   3.47173e-06 DIIS
   @DF-RKS iter   9:  -194.10719025091805   -1.10723e-07   1.17842e-06 DIIS
   @DF-RKS iter  10:  -194.10719026355329   -1.26352e-08   3.82453e-07 DIIS
   @DF-RKS iter  11:  -194.10719026502761   -1.47432e-09   6.07699e-08 DIIS
  Energy and wave function converged.


  ==> Post-Iterations <==

   Electrons on quadrature grid:
      Ntotal   =   36.0000183681 ; deviation = 1.837e-05 

    Orbital Energies [Eh]
    ---------------------

    Doubly Occupied:                                                      

       1Ap   -10.213099     2Ap   -10.211882     3Ap   -10.195828  
       4Ap   -10.151540     5Ap   -10.143010     6Ap    -0.909391  
       7Ap    -0.753420     8Ap    -0.645681     9Ap    -0.589672  
      10Ap    -0.560678    11Ap    -0.478702    12Ap    -0.415263  
       1App   -0.403585    13Ap    -0.380064     2App   -0.375121  
      14Ap    -0.355611    15Ap    -0.304359     3App   -0.200908  

    Virtual:                                                              

       4App   -0.026382    16Ap     0.052975     5App    0.059452  
      17Ap     0.065681    18Ap     0.075352    19Ap     0.093683  
      20Ap     0.117522     6App    0.126563    21Ap     0.129757  
      22Ap     0.149521    23Ap     0.152964     7App    0.190251  
      24Ap     0.196715    25Ap     0.213211    26Ap     0.228527  
       8App    0.230978    27Ap     0.258886     9App    0.283284  
      28Ap     0.283651    29Ap     0.309261    10App    0.313513  
      30Ap     0.328957    31Ap     0.367547    32Ap     0.393462  
      11App    0.395068    33Ap     0.398184    34Ap     0.414883  
      35Ap     0.440171    36Ap     0.454249    37Ap     0.475242  
      12App    0.476201    38Ap     0.486951    39Ap     0.498863  
      40Ap     0.517499    41Ap     0.576179    42Ap     0.619745  
      13App    0.624042    43Ap     0.653817    14App    0.680255  
      15App    0.690628    44Ap     0.709493    45Ap     0.731311  
      16App    0.765331    46Ap     0.808172    47Ap     0.853103  
      17App    0.880223    48Ap     0.909525    49Ap     0.963066  
      50Ap     0.972909    51Ap     1.015204    52Ap     1.048591  
      18App    1.050166    19App    1.063182    53Ap     1.084616  
      20App    1.087241    54Ap     1.159563    55Ap     1.170178  
      21App    1.218237    56Ap     1.228942    57Ap     1.236610  
      58Ap     1.272992    22App    1.371164    59Ap     1.388263  
      23App    1.417398    60Ap     1.432984    61Ap     1.446649  
      62Ap     1.514401    24App    1.539886    63Ap     1.544701  
      25App    1.549473    26App    1.579936    64Ap     1.588216  
      27App    1.628295    65Ap     1.640143    28App    1.682281  
      66Ap     1.739362    67Ap     1.760860    68Ap     1.813260  
      69Ap     1.871058    29App    1.883261    70Ap     1.914644  
      71Ap     1.962491    30App    1.978058    72Ap     2.049121  
      31App    2.073265    73Ap     2.081219    74Ap     2.132231  
      75Ap     2.152347    76Ap     2.189044    77Ap     2.247280  
      32App    2.251897    33App    2.325423    78Ap     2.355800  
      34App    2.392788    79Ap     2.394022    35App    2.400679  
      80Ap     2.455766    81Ap     2.484765    82Ap     2.501449  
      36App    2.544744    83Ap     2.557574    37App    2.569414  
      84Ap     2.589336    85Ap     2.638209    86Ap     2.658610  
      38App    2.668317    87Ap     2.679282    39App    2.700075  
      88Ap     2.740078    40App    2.769843    89Ap     2.771979  
      90Ap     2.848983    91Ap     2.880691    41App    2.902406  
      92Ap     2.910543    93Ap     2.999113    42App    3.009322  
      94Ap     3.036319    43App    3.040312    95Ap     3.079853  
      44App    3.086019    96Ap     3.112771    45App    3.114145  
      97Ap     3.137573    98Ap     3.172196    46App    3.180680  
      47App    3.233577    99Ap     3.248022   100Ap     3.254642  
      48App    3.290602    49App    3.303157   101Ap     3.313609  
     102Ap     3.345568   103Ap     3.368473    50App    3.390250  
     104Ap     3.429233    51App    3.448743   105Ap     3.503615  
     106Ap     3.569081    52App    3.574966   107Ap     3.672322  
      53App    3.697730   108Ap     3.732374    54App    3.757026  
     109Ap     3.778262   110Ap     3.892022   111Ap     3.994720  
     112Ap     4.000512    55App    4.002344   113Ap     4.120678  
      56App    4.151355   114Ap     4.163915    57App    4.289461  
     115Ap     4.348907    58App    4.379276   116Ap     4.381586  
     117Ap     4.442482   118Ap     4.509806    59App    4.562214  
     119Ap     4.603137   120Ap     4.717705    60App    4.805046  
     121Ap     4.920943   122Ap     4.983577   123Ap     5.079719  
     124Ap     5.230252   125Ap     5.343521   126Ap     5.361241  
     127Ap    22.185033   128Ap    22.311995   129Ap    22.504546  
     130Ap    22.613763   131Ap    23.435890  

    Final Occupation by Irrep:
             Ap   App 
    DOCC [    15,    3 ]
    NA   [    15,    3 ]
    NB   [    15,    3 ]

  @DF-RKS Final Energy:  -194.10719026502761

   => Energetics <=

    Nuclear Repulsion Energy =            146.0608287660313636
    One-Electron Energy =                -548.6444539210986022
    Two-Electron Energy =                 232.2485128198492532
    DFT Exchange-Correlation Energy =     -23.7591566034581056
    Empirical Dispersion Energy =          -0.0129213263515095
    VV10 Nonlocal Energy =                  0.0000000000000000
    Total Energy =                       -194.1071902650276115

Computation Completed


Properties will be evaluated at   0.000000,   0.000000,   0.000000 [a0]

Properties computed using the SCF density matrix


 Multipole Moments:

 ------------------------------------------------------------------------------------
     Multipole            Electronic (a.u.)      Nuclear  (a.u.)        Total (a.u.)
 ------------------------------------------------------------------------------------

 L = 1.  Multiply by 2.5417464519 to convert [e a0] to [Debye]
 Dipole X            :         -0.5128124           -0.0000038           -0.5128162
 Dipole Y            :          0.4912947            0.0000019            0.4912966
 Dipole Z            :          0.0000000            0.0000000            0.0000000
 Magnitude           :                                                    0.7101780

 ------------------------------------------------------------------------------------

*** tstop() called on choehoyun-ui-MacBookAir.local at Sun Aug  9 16:20:17 2026
Module time:
	user time   =      20.44 seconds =       0.34 minutes
	system time =       0.45 seconds =       0.01 minutes
	total time  =          4 seconds =       0.07 minutes
Total time:
	user time   =      20.44 seconds =       0.34 minutes
	system time =       0.45 seconds =       0.01 minutes
	total time  =          4 seconds =       0.07 minutes

    Psi4 stopped on: Sunday, 09 August 2026 04:20PM
    Psi4 wall time for execution: 0:00:03.49

*** Psi4 exiting successfully. Buy a developer a beer!
