
    -----------------------------------------------------------------------
          Psi4: An Open-Source Ab Initio Electronic Structure Package
                               Psi4 1.11 release

                         Git: Rev {} zzzzzzz 


    D. G. A. Smith, L. A. Burns, A. C. Simmonett, R. M. Parrish,
    M. C. Schieber, R. Galvelis, P. Kraus, H. Kruse, R. Di Remigio,
    A. Alenaizan, A. M. James, S. Lehtola, J. P. Misiewicz, M. Scheurer,
    R. A. Shaw, J. B. Schriber, Y. Xie, Z. L. Glick, D. A. Sirianni,
    J. S. O'Brien, J. M. Waldrop, A. Kumar, E. G. Hohenstein,
    B. P. Pritchard, B. R. Brooks, H. F. Schaefer III, A. Yu. Sokolov,
    K. Patkowski, A. E. DePrince III, U. Bozkaya, R. A. King,
    F. A. Evangelista, J. M. Turney, T. D. Crawford, C. D. Sherrill,
    J. Chem. Phys. 152(18) 184108 (2020). https://doi.org/10.1063/5.0006002

                            Additional Code Authors
    E. T. Seidl, C. L. Janssen, E. F. Valeev, M. L. Leininger,
    J. F. Gonthier, R. M. Richard, H. R. McAlexander, M. Saitow, X. Wang,
    P. Verma, M. H. Lechner, A. Jiang, S. Behnle, A. G. Heide,
    M. F. Herbst, D. L. Poole, T. Győri, E. C. Mitchell, J. P. Pederson,
    and A. M. Wallace

             Previous Authors, Complete List of Code Contributors,
                       and Citations for Specific Modules
    https://github.com/psi4/psi4/blob/master/codemeta.json
    https://github.com/psi4/psi4/graphs/contributors
    https://psicode.org/psi4manual/master/introduction.html#citing-psifour

    -----------------------------------------------------------------------


    Psi4 started on: Sunday, 09 August 2026 12:55PM

    Process ID: 58965
    Host:       choehoyun-ui-MacBookAir.local
    PSIDATADIR: /Users/hoyoun/micromamba/envs/psi4env/share/psi4
    Memory:     500.0 MiB
    Threads:    8
    Addons:     a̶d̶c̶c̶, a̶m̶b̶i̶t̶, b̶s̶e̶, c̶c̶t̶3̶, c̶f̶o̶u̶r̶, c̶h̶e̶m̶p̶s̶2̶, c̶p̶p̶e̶, d̶d̶x̶, dftd3,
                d̶f̶t̶d̶4̶, dkh, ecpint, einsums, f̶o̶r̶t̶e̶, gauxc, g̶c̶p̶, g̶d̶m̶a̶,
                g̶e̶o̶m̶e̶t̶r̶i̶c̶, g̶p̶u̶_̶d̶f̶c̶c̶, i̶n̶t̶e̶g̶r̶a̶t̶o̶r̶x̶x̶, i̶p̶i̶,
                l̶i̶b̶e̶f̶p̶, m̶d̶i̶, m̶p̶2̶d̶, m̶r̶c̶c̶, ooo, o̶p̶e̶n̶f̶e̶r̶m̶i̶o̶n̶p̶s̶i̶4̶,
                pcmsolver, p̶s̶i̶4̶f̶o̶c̶k̶c̶i̶, p̶s̶i̶x̶a̶s̶, p̶y̶e̶i̶n̶s̶u̶m̶s̶, r̶e̶s̶p̶,
                s̶i̶m̶i̶n̶t̶, s̶n̶s̶m̶p̶2̶, v̶2̶r̶d̶m̶_̶c̶a̶s̶s̶c̶f̶

  ==> Input File <==

--------------------------------------------------------------------------
memory 3 GB
molecule mol {
0 1
O 4.14345947985265 1.29897297936623 -0.44100000217050
C 3.73245947782979 0.18697297389321 -0.20700000101881
O 4.06845947948351 -0.87202703131895 -0.95000000467569
H 3.65645947745574 -1.67802703528590 -0.55700000274143
C 2.80845947328208 -0.12202702762762 0.96800000476428
H 2.58545947218452 0.80697297694471 1.48000000728423
H 3.33245947586108 -0.79602703094490 1.64900000811601
N 1.55945946713477 -0.75202703072834 0.58100000285955
H 0.73645946308415 -0.18002702791308 0.45000000221480
C 1.51845946693298 -2.05002703711680 0.24000000118123
O 2.53145947191874 -2.75802704060142 0.18400000090561
C 0.16445946026890 -2.64302704003542 -0.08400000041343
H 0.12745946008679 -3.61502704481939 0.40800000200808
H 0.11645946003265 -2.81602704088689 -1.15900000570434
N -0.95554054524350 -1.81302703595035 0.26300000129443
H -1.12754054609004 -1.50402703442951 1.21000000595535
C -1.88854054983551 -1.44702703414897 -0.65200000320900
O -1.85054054964849 -1.74602703562058 -1.83900000905115
C -2.99454055527900 -0.55902702977844 -0.09600000047249
N -2.97254055517072 -0.53002702963570 1.36800000673299
H -3.45654055755286 -1.34102703362727 1.73600000854420
H -3.48654055770051 0.27597297433125 1.70300000838179
H -3.92954055988086 -0.95102703170777 -0.50500000248550
C -2.79354055428972 0.84897297715142 -0.67900000334189
H -2.99854055529869 0.78497297683643 -1.74700000859835
H -3.54454055798598 1.51097298040964 -0.24000000118123
C -1.41554054750751 1.41297297992731 -0.47300000232800
C -0.45454054277769 1.29697297935638 -1.48500000730884
H -0.71554054406227 0.78497297683643 -2.40300001182703
C 0.82145946350250 1.83597298200922 -1.32400000651643
H 1.55445946711017 1.74297298155149 -2.11400001040463
C 1.15745946515622 2.50097298528220 -0.14500000071366
H 2.14845947003370 2.91597298732474 -0.02800000013781
C 0.21245946050514 2.60797298580884 0.87600000431148
H 0.46245946173558 3.12397298834847 1.79400000882967
C -1.06154054576521 2.06597298314123 0.71300000350923
H -1.79254054936302 2.17097298365802 1.50500000740727
units angstrom
no_reorient
no_com
}
set basis def2-TZVP
set scf_type df
set freeze_core true
set e_convergence 8
energy('b3lyp-d3bj')
--------------------------------------------------------------------------

  Memory set to   2.794 GiB by Python driver.

Scratch directory: /Users/hoyoun/Documents/Yonsei_AX_Camp/(진짜_이게_최종)/calibration/dft_work/_scratch/114/
   => Libint2 <=

    Primary   basis highest AM E, G, H:  7, 6, 3
    Auxiliary basis highest AM E, G, H:  7, 7, 4
    Onebody   basis highest AM E, G, H:  -, -, -
    Solid Harmonics ordering:            Gaussian

*** tstart() called on choehoyun-ui-MacBookAir.local
*** at Sun Aug  9 12:55:47 2026

   => Loading Basis Set <=

    Name: DEF2-TZVP
    Role: ORBITAL
    Keyword: BASIS
    atoms 1, 3, 11, 18                                           entry O          line   189 file /Users/hoyoun/micromamba/envs/psi4env/share/psi4/basis/def2-tzvp.gbs 
    atoms 2, 5, 10, 12, 17, 19, 24, 27-28, 30, 32, 34, 36        entry C          line   123 file /Users/hoyoun/micromamba/envs/psi4env/share/psi4/basis/def2-tzvp.gbs 
    atoms 4, 6-7, 9, 13-14, 16, 21-23, 25-26, 29, 31, 33, 35, 37 entry H          line    15 file /Users/hoyoun/micromamba/envs/psi4env/share/psi4/basis/def2-tzvp.gbs 
    atoms 8, 15, 20                                              entry N          line   156 file /Users/hoyoun/micromamba/envs/psi4env/share/psi4/basis/def2-tzvp.gbs 

   => B3LYP-D3(BJ): Empirical Dispersion <=

    Grimme's -D3 (BJ-damping) Dispersion Correction
    Grimme S.; Ehrlich S.; Goerigk L. (2011), J. Comput. Chem., 32: 1456

        s6 =       1.000000
        s8 =       1.988900
        a1 =       0.398100
        a2 =       4.421100


         ---------------------------------------------------------
                                   SCF
               by Justin Turney, Rob Parrish, Andy Simmonett
                          and Daniel G. A. Smith
                              RKS Reference
                        8 Threads,   2861 MiB Core
         ---------------------------------------------------------

  ==> Geometry <==

    Molecular point group: c1
    Full point group: C1

    Geometry (in Angstrom), charge = 0, multiplicity = 1:

       Center              X                  Y                   Z               Mass       
    ------------   -----------------  -----------------  -----------------  -----------------
         O            4.143459479853     1.298972979366    -0.441000002171    15.994914619570
         C            3.732459477830     0.186972973893    -0.207000001019    12.000000000000
         O            4.068459479484    -0.872027031319    -0.950000004676    15.994914619570
         H            3.656459477456    -1.678027035286    -0.557000002741     1.007825032230
         C            2.808459473282    -0.122027027628     0.968000004764    12.000000000000
         H            2.585459472185     0.806972976945     1.480000007284     1.007825032230
         H            3.332459475861    -0.796027030945     1.649000008116     1.007825032230
         N            1.559459467135    -0.752027030728     0.581000002860    14.003074004430
         H            0.736459463084    -0.180027027913     0.450000002215     1.007825032230
         C            1.518459466933    -2.050027037117     0.240000001181    12.000000000000
         O            2.531459471919    -2.758027040601     0.184000000906    15.994914619570
         C            0.164459460269    -2.643027040035    -0.084000000413    12.000000000000
         H            0.127459460087    -3.615027044819     0.408000002008     1.007825032230
         H            0.116459460033    -2.816027040887    -1.159000005704     1.007825032230
         N           -0.955540545243    -1.813027035950     0.263000001294    14.003074004430
         H           -1.127540546090    -1.504027034430     1.210000005955     1.007825032230
         C           -1.888540549836    -1.447027034149    -0.652000003209    12.000000000000
         O           -1.850540549648    -1.746027035621    -1.839000009051    15.994914619570
         C           -2.994540555279    -0.559027029778    -0.096000000472    12.000000000000
         N           -2.972540555171    -0.530027029636     1.368000006733    14.003074004430
         H           -3.456540557553    -1.341027033627     1.736000008544     1.007825032230
         H           -3.486540557701     0.275972974331     1.703000008382     1.007825032230
         H           -3.929540559881    -0.951027031708    -0.505000002486     1.007825032230
         C           -2.793540554290     0.848972977151    -0.679000003342    12.000000000000
         H           -2.998540555299     0.784972976836    -1.747000008598     1.007825032230
         H           -3.544540557986     1.510972980410    -0.240000001181     1.007825032230
         C           -1.415540547508     1.412972979927    -0.473000002328    12.000000000000
         C           -0.454540542778     1.296972979356    -1.485000007309    12.000000000000
         H           -0.715540544062     0.784972976836    -2.403000011827     1.007825032230
         C            0.821459463502     1.835972982009    -1.324000006516    12.000000000000
         H            1.554459467110     1.742972981551    -2.114000010405     1.007825032230
         C            1.157459465156     2.500972985282    -0.145000000714    12.000000000000
         H            2.148459470034     2.915972987325    -0.028000000138     1.007825032230
         C            0.212459460505     2.607972985809     0.876000004311    12.000000000000
         H            0.462459461736     3.123972988348     1.794000008830     1.007825032230
         C           -1.061540545765     2.065972983141     0.713000003509    12.000000000000
         H           -1.792540549363     2.170972983658     1.505000007407     1.007825032230

  Running in c1 symmetry.

  Rotational constants: A =      0.01655  B =      0.00937  C =      0.00713 [cm^-1]
  Rotational constants: A =    496.01161  B =    280.97477  C =    213.73922 [MHz]
  Nuclear repulsion = 1664.021188474972405

  Charge       = 0
  Multiplicity = 1
  Electrons    = 148
  Nalpha       = 74
  Nbeta        = 74

  ==> Algorithm <==

  SCF Algorithm Type is DF.
  DIIS enabled.
  MOM disabled.
  Fractional occupation disabled.
  Guess Type is SAD.
  Energy threshold   = 1.00e-08
  Density threshold  = 1.00e-06
  Integral threshold = 1.00e-12

  ==> Primary Basis <==

  Basis Set: DEF2-TZVP
    Blend: DEF2-TZVP
    Number of shells: 288
    Number of basis functions: 722
    Number of Cartesian functions: 822
    Spherical Harmonics?: true
    Max angular momentum: 3

  ==> DFT Potential <==

   => LibXC <=

    Version 7.1.2
    S. Lehtola, C. Steigemann, M. J. T. Oliveira, and M. A. L. Marques,  SoftwareX 7, 1–5 (2018) (10.1016/j.softx.2017.11.002)

   => Composite Functional: B3LYP-D3BJ2B <= 

    B3LYP-d3bj2b Hyb-GGA Exchange-Correlation Functional

    P. J. Stephens, F. J. Devlin, C. F. Chabalowski, and M. J. Frisch,  J. Phys. Chem. 98, 11623 (1994) (10.1021/j100096a001)

    Deriv               =              1
    GGA                 =           TRUE
    Meta                =          FALSE

    Exchange Hybrid     =           TRUE
    MP2 Hybrid          =          FALSE

   => Exchange Functionals <=

    0.0800   Slater exchange
    0.7200         Becke 88

   => Exact (HF) Exchange <=

    0.2000               HF 

   => Correlation Functionals <=

    0.1900   Vosko, Wilk & Nusair (VWN5_RPA)
    0.8100   Lee, Yang & Parr

   => LibXC Density Thresholds  <==

    XC_HYB_GGA_XC_B3LYP:  1.00E-15 

   => Molecular Quadrature <=

    Radial Scheme          =       TREUTLER
    Pruning Scheme         =           NONE
    Nuclear Scheme         =       TREUTLER

    Blocking Scheme        =         OCTREE
    BS radius alpha        =              1
    Pruning alpha          =              1
    Radial Points          =             75
    Spherical Points       =            302
    Total Points           =         755410
    Total Blocks           =           5359
    Max Points             =            256
    Max Functions          =            555
    Weights Tolerance      =       1.00E-15

   => Loading Basis Set <=

    Name: (DEF2-TZVP AUX)
    Role: JKFIT
    Keyword: DF_BASIS_SCF
    atoms 1, 3, 11, 18                                           entry O          line   318 file /Users/hoyoun/micromamba/envs/psi4env/share/psi4/basis/def2-universal-jkfit.gbs 
    atoms 2, 5, 10, 12, 17, 19, 24, 27-28, 30, 32, 34, 36        entry C          line   198 file /Users/hoyoun/micromamba/envs/psi4env/share/psi4/basis/def2-universal-jkfit.gbs 
    atoms 4, 6-7, 9, 13-14, 16, 21-23, 25-26, 29, 31, 33, 35, 37 entry H          line    18 file /Users/hoyoun/micromamba/envs/psi4env/share/psi4/basis/def2-universal-jkfit.gbs 
    atoms 8, 15, 20                                              entry N          line   258 file /Users/hoyoun/micromamba/envs/psi4env/share/psi4/basis/def2-universal-jkfit.gbs 

  ==> Integral Setup <==

  ==> DiskDFJK: Density-Fitted J/K Matrices <==

    J tasked:                  Yes
    K tasked:                  Yes
    wK tasked:                  No
    OpenMP threads:              8
    Integrals threads:           8
    Memory [MiB]:             1931
    Algorithm:                Disk
    Integral Cache:           NONE
    Schwarz Cutoff:          1E-12
    Fitting Condition:       1E-10

   => Auxiliary Basis Set <=

  Basis Set: (DEF2-TZVP AUX)
    Blend: DEF2-UNIVERSAL-JKFIT
    Number of shells: 602
    Number of basis functions: 1820
    Number of Cartesian functions: 2148
    Spherical Harmonics?: true
    Max angular momentum: 4

  Cached 2.7% of DFT collocation blocks in 0.203 [GiB].

  Minimum eigenvalue in the overlap matrix is 6.5996322858E-06.
  Reciprocal condition number of the overlap matrix is 5.9649895159E-07.
    Using symmetric orthogonalization.

  ==> Pre-Iterations <==

  SCF Guess: Superposition of Atomic Densities via on-the-fly atomic UHF (no occupation information).

   -------------------------
    Irrep   Nso     Nmo    
   -------------------------
     A        722     722 
   -------------------------
    Total     722     722
   -------------------------

  ==> Iterations <==

                           Total Energy        Delta E     RMS |[F,P]|

   @DF-RKS iter SAD:  -970.51957084299204   -9.70520e+02   0.00000e+00 
   @DF-RKS iter   1:  -969.85946026981173    6.60111e-01   2.50865e-03 ADIIS/DIIS
   @DF-RKS iter   2:  -968.85996623439928    9.99494e-01   3.23888e-03 ADIIS/DIIS
   @DF-RKS iter   3:  -971.24132680396315   -2.38136e+00   4.95267e-04 ADIIS/DIIS
   @DF-RKS iter   4:  -971.28067634605941   -3.93495e-02   2.62546e-04 ADIIS/DIIS
   @DF-RKS iter   5:  -971.29297621897274   -1.22999e-02   1.04444e-04 ADIIS/DIIS
   @DF-RKS iter   6:  -971.29514374366750   -2.16752e-03   2.35327e-05 DIIS
   @DF-RKS iter   7:  -971.29524060568542   -9.68620e-05   8.81703e-06 DIIS
   @DF-RKS iter   8:  -971.29525796711005   -1.73614e-05   3.12887e-06 DIIS
   @DF-RKS iter   9:  -971.29526016837974   -2.20127e-06   8.76381e-07 DIIS
   @DF-RKS iter  10:  -971.29526032891022   -1.60530e-07   2.76772e-07 DIIS
   @DF-RKS iter  11:  -971.29526034145238   -1.25422e-08   1.30740e-07 DIIS
   @DF-RKS iter  12:  -971.29526034485082   -3.39844e-09   3.87537e-08 DIIS
  Energy and wave function converged.


  ==> Post-Iterations <==

   Electrons on quadrature grid:
      Ntotal   =  147.9998078785 ; deviation = -1.921e-04 

    Orbital Energies [Eh]
    ---------------------

    Doubly Occupied:                                                      

       1A    -19.157444     2A    -19.122603     3A    -19.109621  
       4A    -19.106669     5A    -14.372745     6A    -14.360493  
       7A    -14.337580     8A    -10.302461     9A    -10.301024  
      10A    -10.286026    11A    -10.234796    12A    -10.234730  
      13A    -10.233307    14A    -10.199965    15A    -10.199288  
      16A    -10.192096    17A    -10.190858    18A    -10.186971  
      19A    -10.186164    20A    -10.184551    21A     -1.099710  
      22A     -1.068689    23A     -1.055057    24A     -1.015965  
      25A     -0.964388    26A     -0.949027    27A     -0.925508  
      28A     -0.875430    29A     -0.804403    30A     -0.783625  
      31A     -0.762017    32A     -0.746074    33A     -0.731895  
      34A     -0.667364    35A     -0.626685    36A     -0.623327  
      37A     -0.609218    38A     -0.605972    39A     -0.598651  
      40A     -0.567697    41A     -0.554738    42A     -0.535684  
      43A     -0.529010    44A     -0.518380    45A     -0.505988  
      46A     -0.495332    47A     -0.485859    48A     -0.475654  
      49A     -0.470087    50A     -0.461513    51A     -0.457154  
      52A     -0.445670    53A     -0.441410    54A     -0.436785  
      55A     -0.433459    56A     -0.424073    57A     -0.412227  
      58A     -0.408308    59A     -0.397214    60A     -0.395476  
      61A     -0.387514    62A     -0.385878    63A     -0.375572  
      64A     -0.356319    65A     -0.354863    66A     -0.318933  
      67A     -0.312999    68A     -0.302999    69A     -0.299261  
      70A     -0.279645    71A     -0.274611    72A     -0.271266  
      73A     -0.268458    74A     -0.262521  

    Virtual:                                                              

      75A     -0.032642    76A     -0.031978    77A     -0.016037  
      78A     -0.004261    79A     -0.002124    80A      0.002069  
      81A      0.034863    82A      0.035423    83A      0.052365  
      84A      0.054843    85A      0.060687    86A      0.067582  
      87A      0.076756    88A      0.088488    89A      0.093944  
      90A      0.097343    91A      0.103435    92A      0.112644  
      93A      0.114872    94A      0.119048    95A      0.123395  
      96A      0.128186    97A      0.134250    98A      0.134909  
      99A      0.142605   100A      0.146969   101A      0.154697  
     102A      0.166403   103A      0.172584   104A      0.178968  
     105A      0.182177   106A      0.190999   107A      0.197661  
     108A      0.207354   109A      0.209571   110A      0.216860  
     111A      0.220057   112A      0.224613   113A      0.229871  
     114A      0.236742   115A      0.240422   116A      0.241614  
     117A      0.243962   118A      0.255143   119A      0.265029  
     120A      0.273601   121A      0.274994   122A      0.282111  
     123A      0.288189   124A      0.291629   125A      0.293973  
     126A      0.296638   127A      0.298902   128A      0.314254  
     129A      0.319418   130A      0.324643   131A      0.330343  
     132A      0.334175   133A      0.338806   134A      0.343516  
     135A      0.348680   136A      0.357480   137A      0.359682  
     138A      0.362649   139A      0.374004   140A      0.376222  
     141A      0.378683   142A      0.384430   143A      0.389284  
     144A      0.392895   145A      0.397787   146A      0.404277  
     147A      0.407499   148A      0.408999   149A      0.412846  
     150A      0.416979   151A      0.422866   152A      0.425605  
     153A      0.429105   154A      0.433083   155A      0.436844  
     156A      0.445420   157A      0.449063   158A      0.451727  
     159A      0.457248   160A      0.462192   161A      0.468158  
     162A      0.474036   163A      0.476144   164A      0.479199  
     165A      0.481977   166A      0.485869   167A      0.493105  
     168A      0.500675   169A      0.509136   170A      0.515538  
     171A      0.519514   172A      0.521610   173A      0.524532  
     174A      0.534955   175A      0.541682   176A      0.551648  
     177A      0.557525   178A      0.559303   179A      0.566183  
     180A      0.574187   181A      0.579790   182A      0.585676  
     183A      0.587693   184A      0.603214   185A      0.606719  
     186A      0.620382   187A      0.629464   188A      0.633935  
     189A      0.642317   190A      0.647447   191A      0.659203  
     192A      0.665344   193A      0.669648   194A      0.676935  
     195A      0.684922   196A      0.696588   197A      0.697752  
     198A      0.701262   199A      0.717121   200A      0.722033  
     201A      0.731496   202A      0.734420   203A      0.740360  
     204A      0.749176   205A      0.757484   206A      0.759605  
     207A      0.773515   208A      0.786446   209A      0.788021  
     210A      0.801558   211A      0.808850   212A      0.812462  
     213A      0.819005   214A      0.827168   215A      0.832583  
     216A      0.835233   217A      0.845219   218A      0.860752  
     219A      0.868438   220A      0.875578   221A      0.884619  
     222A      0.892111   223A      0.902771   224A      0.907902  
     225A      0.908974   226A      0.914113   227A      0.930555  
     228A      0.940768   229A      0.943185   230A      0.954037  
     231A      0.965282   232A      0.974138   233A      0.984894  
     234A      0.991745   235A      0.994242   236A      1.006862  
     237A      1.021379   238A      1.040278   239A      1.041754  
     240A      1.043137   241A      1.057036   242A      1.073249  
     243A      1.083510   244A      1.090102   245A      1.101055  
     246A      1.105275   247A      1.111224   248A      1.121159  
     249A      1.131872   250A      1.138596   251A      1.142046  
     252A      1.150924   253A      1.153874   254A      1.169575  
     255A      1.191950   256A      1.208516   257A      1.209742  
     258A      1.219032   259A      1.227241   260A      1.232265  
     261A      1.246350   262A      1.256969   263A      1.262132  
     264A      1.267968   265A      1.277144   266A      1.289363  
     267A      1.299236   268A      1.304919   269A      1.324755  
     270A      1.332570   271A      1.338950   272A      1.349142  
     273A      1.360025   274A      1.365275   275A      1.370468  
     276A      1.381520   277A      1.387691   278A      1.391309  
     279A      1.398977   280A      1.415412   281A      1.421528  
     282A      1.427412   283A      1.439600   284A      1.448683  
     285A      1.450898   286A      1.461837   287A      1.471919  
     288A      1.475517   289A      1.478950   290A      1.485277  
     291A      1.493300   292A      1.501772   293A      1.510828  
     294A      1.520378   295A      1.528717   296A      1.539901  
     297A      1.549702   298A      1.559141   299A      1.565884  
     300A      1.571534   301A      1.579439   302A      1.587712  
     303A      1.588442   304A      1.597608   305A      1.609624  
     306A      1.619358   307A      1.627362   308A      1.641388  
     309A      1.650256   310A      1.654627   311A      1.664006  
     312A      1.672538   313A      1.682402   314A      1.691041  
     315A      1.697177   316A      1.704578   317A      1.707378  
     318A      1.714996   319A      1.731259   320A      1.743078  
     321A      1.749652   322A      1.755794   323A      1.770026  
     324A      1.782336   325A      1.783111   326A      1.801775  
     327A      1.808591   328A      1.821872   329A      1.824697  
     330A      1.830016   331A      1.838913   332A      1.846667  
     333A      1.859110   334A      1.864092   335A      1.875662  
     336A      1.882807   337A      1.893202   338A      1.908435  
     339A      1.918430   340A      1.926937   341A      1.930612  
     342A      1.940172   343A      1.946599   344A      1.952884  
     345A      1.970685   346A      1.979472   347A      1.987174  
     348A      1.990065   349A      2.007927   350A      2.013444  
     351A      2.015343   352A      2.030715   353A      2.036844  
     354A      2.045382   355A      2.069804   356A      2.071872  
     357A      2.084160   358A      2.090431   359A      2.098431  
     360A      2.110457   361A      2.113887   362A      2.127189  
     363A      2.133347   364A      2.142054   365A      2.152781  
     366A      2.165066   367A      2.171686   368A      2.182541  
     369A      2.188508   370A      2.204403   371A      2.219791  
     372A      2.232249   373A      2.238373   374A      2.241065  
     375A      2.250516   376A      2.263814   377A      2.264086  
     378A      2.281312   379A      2.293198   380A      2.300649  
     381A      2.306207   382A      2.326118   383A      2.333444  
     384A      2.346242   385A      2.365414   386A      2.372257  
     387A      2.381156   388A      2.385984   389A      2.394504  
     390A      2.396819   391A      2.420033   392A      2.437137  
     393A      2.441768   394A      2.453223   395A      2.466316  
     396A      2.481727   397A      2.496298   398A      2.506131  
     399A      2.510878   400A      2.522257   401A      2.528388  
     402A      2.533817   403A      2.542814   404A      2.548743  
     405A      2.555587   406A      2.565155   407A      2.576189  
     408A      2.576623   409A      2.595155   410A      2.598090  
     411A      2.614492   412A      2.625949   413A      2.626716  
     414A      2.637727   415A      2.647970   416A      2.649204  
     417A      2.653160   418A      2.658144   419A      2.674637  
     420A      2.677880   421A      2.687123   422A      2.690162  
     423A      2.697111   424A      2.709584   425A      2.718062  
     426A      2.722059   427A      2.732253   428A      2.736325  
     429A      2.747782   430A      2.763174   431A      2.771415  
     432A      2.779083   433A      2.788307   434A      2.790324  
     435A      2.800810   436A      2.810011   437A      2.813789  
     438A      2.824828   439A      2.825459   440A      2.829052  
     441A      2.833465   442A      2.847023   443A      2.850668  
     444A      2.862459   445A      2.870949   446A      2.885225  
     447A      2.899465   448A      2.901704   449A      2.908255  
     450A      2.916688   451A      2.925870   452A      2.951407  
     453A      2.952117   454A      2.971881   455A      2.977227  
     456A      2.986218   457A      2.994141   458A      3.001467  
     459A      3.006722   460A      3.017902   461A      3.030260  
     462A      3.039405   463A      3.047111   464A      3.058444  
     465A      3.062093   466A      3.075614   467A      3.078429  
     468A      3.089488   469A      3.096721   470A      3.100179  
     471A      3.106852   472A      3.118632   473A      3.130589  
     474A      3.133748   475A      3.141679   476A      3.152175  
     477A      3.155522   478A      3.161009   479A      3.168046  
     480A      3.172047   481A      3.174939   482A      3.184341  
     483A      3.200829   484A      3.203754   485A      3.214308  
     486A      3.221776   487A      3.225499   488A      3.235628  
     489A      3.244709   490A      3.257421   491A      3.259380  
     492A      3.264782   493A      3.272115   494A      3.280223  
     495A      3.287977   496A      3.293942   497A      3.300605  
     498A      3.306223   499A      3.311071   500A      3.321562  
     501A      3.322720   502A      3.335590   503A      3.341431  
     504A      3.353134   505A      3.362861   506A      3.370775  
     507A      3.381017   508A      3.385595   509A      3.390178  
     510A      3.402868   511A      3.410584   512A      3.413938  
     513A      3.415072   514A      3.422109   515A      3.435545  
     516A      3.441189   517A      3.451647   518A      3.453382  
     519A      3.473874   520A      3.475678   521A      3.479718  
     522A      3.488009   523A      3.503189   524A      3.506444  
     525A      3.514747   526A      3.525450   527A      3.530862  
     528A      3.534908   529A      3.548944   530A      3.562175  
     531A      3.569445   532A      3.573809   533A      3.587836  
     534A      3.602567   535A      3.611178   536A      3.638430  
     537A      3.645929   538A      3.659950   539A      3.682279  
     540A      3.689652   541A      3.698384   542A      3.707829  
     543A      3.719160   544A      3.744640   545A      3.760519  
     546A      3.767707   547A      3.781766   548A      3.795665  
     549A      3.798444   550A      3.806235   551A      3.833954  
     552A      3.839997   553A      3.845072   554A      3.852263  
     555A      3.882501   556A      3.888424   557A      3.906727  
     558A      3.931746   559A      3.947325   560A      3.952763  
     561A      3.965979   562A      3.976251   563A      3.987263  
     564A      4.002073   565A      4.011880   566A      4.020303  
     567A      4.034964   568A      4.051418   569A      4.066911  
     570A      4.091438   571A      4.107334   572A      4.122671  
     573A      4.135155   574A      4.150193   575A      4.182096  
     576A      4.183881   577A      4.195768   578A      4.202838  
     579A      4.214801   580A      4.225272   581A      4.240730  
     582A      4.250707   583A      4.271152   584A      4.276996  
     585A      4.286811   586A      4.307585   587A      4.319903  
     588A      4.321402   589A      4.341748   590A      4.360269  
     591A      4.381358   592A      4.396878   593A      4.410737  
     594A      4.433167   595A      4.446503   596A      4.486010  
     597A      4.492088   598A      4.520715   599A      4.528501  
     600A      4.534984   601A      4.579618   602A      4.584503  
     603A      4.593600   604A      4.626605   605A      4.668421  
     606A      4.680307   607A      4.689084   608A      4.712820  
     609A      4.724973   610A      4.734887   611A      4.755598  
     612A      4.777799   613A      4.783121   614A      4.805827  
     615A      4.820808   616A      4.837307   617A      4.859907  
     618A      4.866814   619A      4.868221   620A      4.900496  
     621A      4.928357   622A      4.965044   623A      4.973976  
     624A      5.014837   625A      5.030309   626A      5.054431  
     627A      5.073653   628A      5.111448   629A      5.113644  
     630A      5.129137   631A      5.139196   632A      5.157030  
     633A      5.168847   634A      5.179925   635A      5.184951  
     636A      5.198196   637A      5.202286   638A      5.213284  
     639A      5.220043   640A      5.223750   641A      5.229003  
     642A      5.262612   643A      5.278186   644A      5.301167  
     645A      5.314067   646A      5.338704   647A      5.367853  
     648A      5.374146   649A      5.380636   650A      5.395353  
     651A      5.413222   652A      5.432512   653A      5.434651  
     654A      5.473940   655A      5.499197   656A      5.535165  
     657A      5.557571   658A      5.564019   659A      5.600303  
     660A      5.602131   661A      5.626942   662A      5.660507  
     663A      5.683878   664A      5.691277   665A      5.706033  
     666A      5.802893   667A      5.828731   668A      5.878978  
     669A      5.918465   670A      5.962749   671A      5.985195  
     672A      5.999370   673A      6.076650   674A      6.150326  
     675A      6.173006   676A      6.183836   677A      6.298041  
     678A      6.362626   679A      6.364457   680A      6.381912  
     681A      6.421336   682A      6.463424   683A      6.497348  
     684A      6.543349   685A      6.566715   686A      6.622229  
     687A      6.690073   688A      6.724420   689A      6.740270  
     690A      6.752784   691A      6.780095   692A      6.833801  
     693A      6.843341   694A      6.851964   695A      6.989622  
     696A      7.069434   697A      7.079686   698A      7.089281  
     699A      7.097823   700A      7.123387   701A      7.142885  
     702A      7.319072   703A     22.314456   704A     22.537896  
     705A     22.547922   706A     22.565101   707A     22.605700  
     708A     22.620468   709A     22.699186   710A     22.731244  
     711A     22.818782   712A     23.210123   713A     23.274640  
     714A     23.359709   715A     23.364434   716A     32.018044  
     717A     32.518965   718A     32.580113   719A     43.859049  
     720A     43.897158   721A     43.920279   722A     44.013595  

    Final Occupation by Irrep:
              A 
    DOCC [    74 ]
    NA   [    74 ]
    NB   [    74 ]

  @DF-RKS Final Energy:  -971.29526034485082

   => Energetics <=

    Nuclear Repulsion Energy =           1664.0211884749724049
    One-Electron Energy =               -4628.9099482374322179
    Two-Electron Energy =                2100.7356499361812894
    DFT Exchange-Correlation Energy =    -107.0583791424704003
    Empirical Dispersion Energy =          -0.0837713761020274
    VV10 Nonlocal Energy =                  0.0000000000000000
    Total Energy =                       -971.2952603448509308

Computation Completed


Properties will be evaluated at   0.000000,   0.000000,   0.000000 [a0]

Properties computed using the SCF density matrix


 Multipole Moments:

 ------------------------------------------------------------------------------------
     Multipole            Electronic (a.u.)      Nuclear  (a.u.)        Total (a.u.)
 ------------------------------------------------------------------------------------

 L = 1.  Multiply by 2.5417464519 to convert [e a0] to [Debye]
 Dipole X            :        -91.6249263           88.9550783           -2.6698480
 Dipole Y            :         33.1143675          -32.9417060            0.1726616
 Dipole Z            :         39.4568795          -37.3976802            2.0591993
 Magnitude           :                                                    3.3761223

 ------------------------------------------------------------------------------------

*** tstop() called on choehoyun-ui-MacBookAir.local at Sun Aug  9 12:58:20 2026
Module time:
	user time   =     929.17 seconds =      15.49 minutes
	system time =      22.40 seconds =       0.37 minutes
	total time  =        153 seconds =       2.55 minutes
Total time:
	user time   =     929.17 seconds =      15.49 minutes
	system time =      22.40 seconds =       0.37 minutes
	total time  =        153 seconds =       2.55 minutes

    Psi4 stopped on: Sunday, 09 August 2026 12:58PM
    Psi4 wall time for execution: 0:02:33.41

*** Psi4 exiting successfully. Buy a developer a beer!
