
    -----------------------------------------------------------------------
          Psi4: An Open-Source Ab Initio Electronic Structure Package
                               Psi4 1.11 release

                         Git: Rev {} zzzzzzz 


    D. G. A. Smith, L. A. Burns, A. C. Simmonett, R. M. Parrish,
    M. C. Schieber, R. Galvelis, P. Kraus, H. Kruse, R. Di Remigio,
    A. Alenaizan, A. M. James, S. Lehtola, J. P. Misiewicz, M. Scheurer,
    R. A. Shaw, J. B. Schriber, Y. Xie, Z. L. Glick, D. A. Sirianni,
    J. S. O'Brien, J. M. Waldrop, A. Kumar, E. G. Hohenstein,
    B. P. Pritchard, B. R. Brooks, H. F. Schaefer III, A. Yu. Sokolov,
    K. Patkowski, A. E. DePrince III, U. Bozkaya, R. A. King,
    F. A. Evangelista, J. M. Turney, T. D. Crawford, C. D. Sherrill,
    J. Chem. Phys. 152(18) 184108 (2020). https://doi.org/10.1063/5.0006002

                            Additional Code Authors
    E. T. Seidl, C. L. Janssen, E. F. Valeev, M. L. Leininger,
    J. F. Gonthier, R. M. Richard, H. R. McAlexander, M. Saitow, X. Wang,
    P. Verma, M. H. Lechner, A. Jiang, S. Behnle, A. G. Heide,
    M. F. Herbst, D. L. Poole, T. Győri, E. C. Mitchell, J. P. Pederson,
    and A. M. Wallace

             Previous Authors, Complete List of Code Contributors,
                       and Citations for Specific Modules
    https://github.com/psi4/psi4/blob/master/codemeta.json
    https://github.com/psi4/psi4/graphs/contributors
    https://psicode.org/psi4manual/master/introduction.html#citing-psifour

    -----------------------------------------------------------------------


    Psi4 started on: Sunday, 09 August 2026 04:20PM

    Process ID: 61853
    Host:       choehoyun-ui-MacBookAir.local
    PSIDATADIR: /Users/hoyoun/micromamba/envs/psi4env/share/psi4
    Memory:     500.0 MiB
    Threads:    8
    Addons:     a̶d̶c̶c̶, a̶m̶b̶i̶t̶, b̶s̶e̶, c̶c̶t̶3̶, c̶f̶o̶u̶r̶, c̶h̶e̶m̶p̶s̶2̶, c̶p̶p̶e̶, d̶d̶x̶, dftd3,
                d̶f̶t̶d̶4̶, dkh, ecpint, einsums, f̶o̶r̶t̶e̶, gauxc, g̶c̶p̶, g̶d̶m̶a̶,
                g̶e̶o̶m̶e̶t̶r̶i̶c̶, g̶p̶u̶_̶d̶f̶c̶c̶, i̶n̶t̶e̶g̶r̶a̶t̶o̶r̶x̶x̶, i̶p̶i̶,
                l̶i̶b̶e̶f̶p̶, m̶d̶i̶, m̶p̶2̶d̶, m̶r̶c̶c̶, ooo, o̶p̶e̶n̶f̶e̶r̶m̶i̶o̶n̶p̶s̶i̶4̶,
                pcmsolver, p̶s̶i̶4̶f̶o̶c̶k̶c̶i̶, p̶s̶i̶x̶a̶s̶, p̶y̶e̶i̶n̶s̶u̶m̶s̶, r̶e̶s̶p̶,
                s̶i̶m̶i̶n̶t̶, s̶n̶s̶m̶p̶2̶, v̶2̶r̶d̶m̶_̶c̶a̶s̶s̶c̶f̶

  ==> Input File <==

--------------------------------------------------------------------------
memory 3 GB
molecule mol {
0 1
C 0.00000000000000 0.18506898668729 0.00000000000000
C -1.37563890244791 -0.42505196998392 0.00000000000000
C -0.03877299733829 -1.11101592111486 0.00000000000000
C 0.71121094929560 1.42514489899478 0.00000000000000
C 0.61578995645929 -2.42867882769088 0.00000000000000
C 0.10759399224628 2.61618281431813 0.00000000000000
H -1.97313085976886 -0.40643797108656 0.91186893515911
H -1.97313085976886 -0.40643797108656 -0.91186893515911
H 1.79462487278741 1.36673690295664 0.00000000000000
H 0.31345097751611 -3.00644178644729 -0.87752393767275
H 1.70192287924579 -2.33892683411347 0.00000000000000
H -0.97173593097721 2.69125380907855 0.00000000000000
H 0.67345395209352 3.53678574896266 0.00000000000000
H 0.31345097751611 -3.00644178644729 0.87752393767275
units angstrom
no_reorient
no_com
}
set basis def2-TZVP
set scf_type df
set freeze_core true
set e_convergence 8
energy('b3lyp-d3bj')
--------------------------------------------------------------------------

  Memory set to   2.794 GiB by Python driver.

Scratch directory: /Users/hoyoun/Documents/Yonsei_AX_Camp/(진짜_이게_최종)/calibration/dft_work/_scratch/R28/
   => Libint2 <=

    Primary   basis highest AM E, G, H:  7, 6, 3
    Auxiliary basis highest AM E, G, H:  7, 7, 4
    Onebody   basis highest AM E, G, H:  -, -, -
    Solid Harmonics ordering:            Gaussian

*** tstart() called on choehoyun-ui-MacBookAir.local
*** at Sun Aug  9 16:20:48 2026

   => Loading Basis Set <=

    Name: DEF2-TZVP
    Role: ORBITAL
    Keyword: BASIS
    atoms 1-6  entry C          line   123 file /Users/hoyoun/micromamba/envs/psi4env/share/psi4/basis/def2-tzvp.gbs 
    atoms 7-14 entry H          line    15 file /Users/hoyoun/micromamba/envs/psi4env/share/psi4/basis/def2-tzvp.gbs 

   => B3LYP-D3(BJ): Empirical Dispersion <=

    Grimme's -D3 (BJ-damping) Dispersion Correction
    Grimme S.; Ehrlich S.; Goerigk L. (2011), J. Comput. Chem., 32: 1456

        s6 =       1.000000
        s8 =       1.988900
        a1 =       0.398100
        a2 =       4.421100


         ---------------------------------------------------------
                                   SCF
               by Justin Turney, Rob Parrish, Andy Simmonett
                          and Daniel G. A. Smith
                              RKS Reference
                        8 Threads,   2861 MiB Core
         ---------------------------------------------------------

  ==> Geometry <==

    Molecular point group: cs
    Full point group: Cs

    Geometry (in Angstrom), charge = 0, multiplicity = 1:

       Center              X                  Y                   Z               Mass       
    ------------   -----------------  -----------------  -----------------  -----------------
         C            0.000000000000     0.185068986687     0.000000000000    12.000000000000
         C           -1.375638902448    -0.425051969984     0.000000000000    12.000000000000
         C           -0.038772997338    -1.111015921115     0.000000000000    12.000000000000
         C            0.711210949296     1.425144898995     0.000000000000    12.000000000000
         C            0.615789956459    -2.428678827691     0.000000000000    12.000000000000
         C            0.107593992246     2.616182814318     0.000000000000    12.000000000000
         H           -1.973130859769    -0.406437971087     0.911868935159     1.007825032230
         H           -1.973130859769    -0.406437971087    -0.911868935159     1.007825032230
         H            1.794624872787     1.366736902957     0.000000000000     1.007825032230
         H            0.313450977516    -3.006441786447    -0.877523937673     1.007825032230
         H            1.701922879246    -2.338926834113     0.000000000000     1.007825032230
         H           -0.971735930977     2.691253809079     0.000000000000     1.007825032230
         H            0.673453952094     3.536785748963     0.000000000000     1.007825032230
         H            0.313450977516    -3.006441786447     0.877523937673     1.007825032230

  Running in cs symmetry.

  Rotational constants: A =      0.32242  B =      0.06914  C =      0.05820 [cm^-1]
  Rotational constants: A =   9666.03120  B =   2072.84031  C =   1744.86676 [MHz]
  Nuclear repulsion =  203.856988249457629

  Charge       = 0
  Multiplicity = 1
  Electrons    = 44
  Nalpha       = 22
  Nbeta        = 22

  ==> Algorithm <==

  SCF Algorithm Type is DF.
  DIIS enabled.
  MOM disabled.
  Fractional occupation disabled.
  Guess Type is SAD.
  Energy threshold   = 1.00e-08
  Density threshold  = 1.00e-06
  Integral threshold = 1.00e-12

  ==> Primary Basis <==

  Basis Set: DEF2-TZVP
    Blend: DEF2-TZVP
    Number of shells: 98
    Number of basis functions: 234
    Number of Cartesian functions: 264
    Spherical Harmonics?: true
    Max angular momentum: 3

  ==> DFT Potential <==

   => LibXC <=

    Version 7.1.2
    S. Lehtola, C. Steigemann, M. J. T. Oliveira, and M. A. L. Marques,  SoftwareX 7, 1–5 (2018) (10.1016/j.softx.2017.11.002)

   => Composite Functional: B3LYP-D3BJ2B <= 

    B3LYP-d3bj2b Hyb-GGA Exchange-Correlation Functional

    P. J. Stephens, F. J. Devlin, C. F. Chabalowski, and M. J. Frisch,  J. Phys. Chem. 98, 11623 (1994) (10.1021/j100096a001)

    Deriv               =              1
    GGA                 =           TRUE
    Meta                =          FALSE

    Exchange Hybrid     =           TRUE
    MP2 Hybrid          =          FALSE

   => Exchange Functionals <=

    0.0800   Slater exchange
    0.7200         Becke 88

   => Exact (HF) Exchange <=

    0.2000               HF 

   => Correlation Functionals <=

    0.1900   Vosko, Wilk & Nusair (VWN5_RPA)
    0.8100   Lee, Yang & Parr

   => LibXC Density Thresholds  <==

    XC_HYB_GGA_XC_B3LYP:  1.00E-15 

   => Molecular Quadrature <=

    Radial Scheme          =       TREUTLER
    Pruning Scheme         =           NONE
    Nuclear Scheme         =       TREUTLER

    Blocking Scheme        =         OCTREE
    BS radius alpha        =              1
    Pruning alpha          =              1
    Radial Points          =             75
    Spherical Points       =            302
    Total Points           =         298999
    Total Blocks           =           2239
    Max Points             =            256
    Max Functions          =            225
    Weights Tolerance      =       1.00E-15

   => Loading Basis Set <=

    Name: (DEF2-TZVP AUX)
    Role: JKFIT
    Keyword: DF_BASIS_SCF
    atoms 1-6  entry C          line   198 file /Users/hoyoun/micromamba/envs/psi4env/share/psi4/basis/def2-universal-jkfit.gbs 
    atoms 7-14 entry H          line    18 file /Users/hoyoun/micromamba/envs/psi4env/share/psi4/basis/def2-universal-jkfit.gbs 

  ==> Integral Setup <==

  DFHelper Memory: AOs need 0.247 GiB; user supplied 0.636 GiB. 
  SCF_SUBTYPE=INCORE selected. In-core MEM_DF algorithm will be used.
  Using in-core AOs.

  ==> MemDFJK: Density-Fitted J/K Matrices <==

    J tasked:                   Yes
    K tasked:                   Yes
    wK tasked:                   No
    OpenMP threads:               8
    Memory [MiB]:               651
    Algorithm:                 Core
    Schwarz Cutoff:           1E-12
    Mask sparsity (%):       5.0515
    Fitting Condition:        1E-10

   => Auxiliary Basis Set <=

  Basis Set: (DEF2-TZVP AUX)
    Blend: DEF2-UNIVERSAL-JKFIT
    Number of shells: 198
    Number of basis functions: 594
    Number of Cartesian functions: 694
    Spherical Harmonics?: true
    Max angular momentum: 4

  Cached 100.0% of DFT collocation blocks in 1.460 [GiB].

  Minimum eigenvalue in the overlap matrix is 2.6499274763E-05.
  Reciprocal condition number of the overlap matrix is 3.0696768038E-06.
    Using symmetric orthogonalization.

  ==> Pre-Iterations <==

  SCF Guess: Superposition of Atomic Densities via on-the-fly atomic UHF (no occupation information).

   -------------------------
    Irrep   Nso     Nmo    
   -------------------------
     A'       158     158 
     A"        76      76 
   -------------------------
    Total     234     234
   -------------------------

  ==> Iterations <==

                           Total Energy        Delta E     RMS |[F,P]|

   @DF-RKS iter SAD:  -232.76167564509646   -2.32762e+02   0.00000e+00 
   @DF-RKS iter   1:  -232.81815623737563   -5.64806e-02   6.31187e-03 ADIIS/DIIS
   @DF-RKS iter   2:  -232.51394930470559    3.04207e-01   7.32633e-03 ADIIS/DIIS
   @DF-RKS iter   3:  -233.44470196130811   -9.30753e-01   9.85736e-04 ADIIS/DIIS
   @DF-RKS iter   4:  -233.45159527590064   -6.89331e-03   7.97747e-04 ADIIS/DIIS
   @DF-RKS iter   5:  -233.46150184082467   -9.90656e-03   1.48105e-04 ADIIS/DIIS
   @DF-RKS iter   6:  -233.46179950691999   -2.97666e-04   5.01571e-05 DIIS
   @DF-RKS iter   7:  -233.46183375519831   -3.42483e-05   1.81301e-05 DIIS
   @DF-RKS iter   8:  -233.46183812665757   -4.37146e-06   6.01952e-06 DIIS
   @DF-RKS iter   9:  -233.46183866498009   -5.38323e-07   1.20579e-06 DIIS
   @DF-RKS iter  10:  -233.46183868699217   -2.20121e-08   3.27707e-07 DIIS
   @DF-RKS iter  11:  -233.46183868859188   -1.59972e-09   7.73640e-08 DIIS
  Energy and wave function converged.


  ==> Post-Iterations <==

   Electrons on quadrature grid:
      Ntotal   =   43.9999848505 ; deviation = -1.515e-05 

    Orbital Energies [Eh]
    ---------------------

    Doubly Occupied:                                                      

       1Ap   -10.188113     2Ap   -10.185595     3Ap   -10.182783  
       4Ap   -10.180162     5Ap   -10.173319     6Ap   -10.172022  
       7Ap    -0.877748     8Ap    -0.779758     9Ap    -0.735831  
      10Ap    -0.628035    11Ap    -0.572559    12Ap    -0.512623  
      13Ap    -0.472090    14Ap    -0.451508     1App   -0.450714  
      15Ap    -0.428556     2App   -0.409903    16Ap    -0.381917  
      17Ap    -0.327065     3App   -0.312608    18Ap    -0.286432  
       4App   -0.223935  

    Virtual:                                                              

       5App   -0.036689    19Ap     0.038259    20Ap     0.067457  
      21Ap     0.071591     6App    0.073907    22Ap     0.092679  
      23Ap     0.096612     7App    0.112899     8App    0.126302  
      24Ap     0.132300    25Ap     0.133683    26Ap     0.142659  
      27Ap     0.165829    28Ap     0.181839    29Ap     0.203156  
      30Ap     0.206153     9App    0.206791    31Ap     0.222508  
      10App    0.229180    32Ap     0.239636    33Ap     0.268674  
      11App    0.291996    34Ap     0.304588    35Ap     0.314540  
      12App    0.322139    36Ap     0.337905    13App    0.363382  
      37Ap     0.379499    14App    0.395601    38Ap     0.396345  
      39Ap     0.413056    40Ap     0.418065    41Ap     0.429929  
      42Ap     0.449662    15App    0.450638    43Ap     0.462524  
      44Ap     0.464021    16App    0.469947    45Ap     0.485821  
      46Ap     0.498181    47Ap     0.547189    48Ap     0.561419  
      49Ap     0.584453    50Ap     0.590773    17App    0.602213  
      51Ap     0.623758    18App    0.654197    52Ap     0.662301  
      53Ap     0.693218    19App    0.733785    20App    0.763241  
      54Ap     0.781100    55Ap     0.832007    56Ap     0.861062  
      57Ap     0.880865    21App    0.888336    58Ap     0.902689  
      22App    0.919897    59Ap     0.958223    23App    0.974762  
      60Ap     0.986806    61Ap     1.004864    62Ap     1.038219  
      24App    1.062514    63Ap     1.075541    25App    1.095207  
      64Ap     1.114257    65Ap     1.135615    66Ap     1.178449  
      67Ap     1.209833    26App    1.223965    68Ap     1.273420  
      27App    1.291912    69Ap     1.296892    70Ap     1.359835  
      28App    1.393601    71Ap     1.428392    29App    1.443578  
      72Ap     1.482740    73Ap     1.499561    30App    1.514715  
      74Ap     1.520780    31App    1.523463    32App    1.545291  
      75Ap     1.546877    76Ap     1.563133    77Ap     1.593870  
      33App    1.595353    34App    1.664708    78Ap     1.693634  
      35App    1.700013    79Ap     1.720019    80Ap     1.720978  
      81Ap     1.796903    36App    1.812098    82Ap     1.826366  
      37App    1.830293    83Ap     1.838067    84Ap     1.883671  
      85Ap     1.937595    38App    1.968066    86Ap     2.004691  
      39App    2.020868    87Ap     2.029717    88Ap     2.106401  
      89Ap     2.143338    90Ap     2.155391    40App    2.160360  
      91Ap     2.192472    41App    2.216367    92Ap     2.287980  
      93Ap     2.305138    42App    2.312181    94Ap     2.319611  
      43App    2.348185    95Ap     2.360745    44App    2.411749  
      96Ap     2.426693    97Ap     2.430882    45App    2.493750  
      98Ap     2.500169    46App    2.520276    99Ap     2.564749  
     100Ap     2.569778    47App    2.604554   101Ap     2.606994  
     102Ap     2.613238    48App    2.624756   103Ap     2.661361  
     104Ap     2.685493   105Ap     2.712750   106Ap     2.744266  
     107Ap     2.767959    49App    2.806844    50App    2.828766  
      51App    2.856835   108Ap     2.878880    52App    2.899476  
     109Ap     2.903997   110Ap     2.947161   111Ap     2.970272  
     112Ap     2.978241    53App    2.989425    54App    3.018500  
     113Ap     3.036860    55App    3.037616   114Ap     3.050044  
     115Ap     3.082448    56App    3.107281   116Ap     3.122187  
      57App    3.146600   117Ap     3.170522    58App    3.186424  
      59App    3.200728   118Ap     3.225025   119Ap     3.282228  
      60App    3.296404    61App    3.301158   120Ap     3.309816  
      62App    3.317538   121Ap     3.345428   122Ap     3.366741  
      63App    3.386181   123Ap     3.427657   124Ap     3.441345  
     125Ap     3.512633    64App    3.523717   126Ap     3.530250  
      65App    3.567499   127Ap     3.576077   128Ap     3.613254  
      66App    3.624120   129Ap     3.630234    67App    3.656196  
     130Ap     3.686997   131Ap     3.733728    68App    3.783419  
     132Ap     3.800165   133Ap     3.849272   134Ap     3.917578  
      69App    3.924534   135Ap     4.054326    70App    4.082671  
     136Ap     4.087258   137Ap     4.124940    71App    4.185657  
     138Ap     4.202036    72App    4.282476   139Ap     4.368096  
      73App    4.373824   140Ap     4.408978   141Ap     4.449316  
      74App    4.507811   142Ap     4.539151    75App    4.569889  
     143Ap     4.591890   144Ap     4.668511   145Ap     4.698293  
     146Ap     4.775985   147Ap     4.919576    76App    4.947613  
     148Ap     5.110342   149Ap     5.166766   150Ap     5.306547  
     151Ap     5.383213   152Ap     5.535380   153Ap    22.164084  
     154Ap    22.353123   155Ap    22.371159   156Ap    22.760073  
     157Ap    23.124401   158Ap    23.525091  

    Final Occupation by Irrep:
             Ap   App 
    DOCC [    18,    4 ]
    NA   [    18,    4 ]
    NB   [    18,    4 ]

  @DF-RKS Final Energy:  -233.46183868859188

   => Energetics <=

    Nuclear Repulsion Energy =            203.8569882494576291
    One-Electron Energy =                -716.0373425292924594
    Two-Electron Energy =                 307.5140881356779232
    DFT Exchange-Correlation Energy =     -28.7780317946836988
    Empirical Dispersion Energy =          -0.0175407497512954
    VV10 Nonlocal Energy =                  0.0000000000000000
    Total Energy =                       -233.4618386885918540

Computation Completed


Properties will be evaluated at   0.000000,   0.000000,   0.000000 [a0]

Properties computed using the SCF density matrix


 Multipole Moments:

 ------------------------------------------------------------------------------------
     Multipole            Electronic (a.u.)      Nuclear  (a.u.)        Total (a.u.)
 ------------------------------------------------------------------------------------

 L = 1.  Multiply by 2.5417464519 to convert [e a0] to [Debye]
 Dipole X            :          0.2801508            0.0000076            0.2801583
 Dipole Y            :         -0.2326411           -0.0000189           -0.2326600
 Dipole Z            :          0.0000000            0.0000000            0.0000000
 Magnitude           :                                                    0.3641694

 ------------------------------------------------------------------------------------

*** tstop() called on choehoyun-ui-MacBookAir.local at Sun Aug  9 16:20:53 2026
Module time:
	user time   =      27.29 seconds =       0.45 minutes
	system time =       0.53 seconds =       0.01 minutes
	total time  =          5 seconds =       0.08 minutes
Total time:
	user time   =      27.29 seconds =       0.45 minutes
	system time =       0.53 seconds =       0.01 minutes
	total time  =          5 seconds =       0.08 minutes

    Psi4 stopped on: Sunday, 09 August 2026 04:20PM
    Psi4 wall time for execution: 0:00:04.47

*** Psi4 exiting successfully. Buy a developer a beer!
