
    -----------------------------------------------------------------------
          Psi4: An Open-Source Ab Initio Electronic Structure Package
                               Psi4 1.11 release

                         Git: Rev {} zzzzzzz 


    D. G. A. Smith, L. A. Burns, A. C. Simmonett, R. M. Parrish,
    M. C. Schieber, R. Galvelis, P. Kraus, H. Kruse, R. Di Remigio,
    A. Alenaizan, A. M. James, S. Lehtola, J. P. Misiewicz, M. Scheurer,
    R. A. Shaw, J. B. Schriber, Y. Xie, Z. L. Glick, D. A. Sirianni,
    J. S. O'Brien, J. M. Waldrop, A. Kumar, E. G. Hohenstein,
    B. P. Pritchard, B. R. Brooks, H. F. Schaefer III, A. Yu. Sokolov,
    K. Patkowski, A. E. DePrince III, U. Bozkaya, R. A. King,
    F. A. Evangelista, J. M. Turney, T. D. Crawford, C. D. Sherrill,
    J. Chem. Phys. 152(18) 184108 (2020). https://doi.org/10.1063/5.0006002

                            Additional Code Authors
    E. T. Seidl, C. L. Janssen, E. F. Valeev, M. L. Leininger,
    J. F. Gonthier, R. M. Richard, H. R. McAlexander, M. Saitow, X. Wang,
    P. Verma, M. H. Lechner, A. Jiang, S. Behnle, A. G. Heide,
    M. F. Herbst, D. L. Poole, T. Győri, E. C. Mitchell, J. P. Pederson,
    and A. M. Wallace

             Previous Authors, Complete List of Code Contributors,
                       and Citations for Specific Modules
    https://github.com/psi4/psi4/blob/master/codemeta.json
    https://github.com/psi4/psi4/graphs/contributors
    https://psicode.org/psi4manual/master/introduction.html#citing-psifour

    -----------------------------------------------------------------------


    Psi4 started on: Monday, 10 August 2026 06:37PM

    Process ID: 75815
    Host:       choehoyun-ui-MacBookAir.local
    PSIDATADIR: /Users/hoyoun/micromamba/envs/psi4env/share/psi4
    Memory:     500.0 MiB
    Threads:    8
    Addons:     a̶d̶c̶c̶, a̶m̶b̶i̶t̶, b̶s̶e̶, c̶c̶t̶3̶, c̶f̶o̶u̶r̶, c̶h̶e̶m̶p̶s̶2̶, c̶p̶p̶e̶, d̶d̶x̶, dftd3,
                d̶f̶t̶d̶4̶, dkh, ecpint, einsums, f̶o̶r̶t̶e̶, gauxc, g̶c̶p̶, g̶d̶m̶a̶,
                g̶e̶o̶m̶e̶t̶r̶i̶c̶, g̶p̶u̶_̶d̶f̶c̶c̶, i̶n̶t̶e̶g̶r̶a̶t̶o̶r̶x̶x̶, i̶p̶i̶,
                l̶i̶b̶e̶f̶p̶, m̶d̶i̶, m̶p̶2̶d̶, m̶r̶c̶c̶, ooo, o̶p̶e̶n̶f̶e̶r̶m̶i̶o̶n̶p̶s̶i̶4̶,
                pcmsolver, p̶s̶i̶4̶f̶o̶c̶k̶c̶i̶, p̶s̶i̶x̶a̶s̶, p̶y̶e̶i̶n̶s̶u̶m̶s̶, r̶e̶s̶p̶,
                s̶i̶m̶i̶n̶t̶, s̶n̶s̶m̶p̶2̶, v̶2̶r̶d̶m̶_̶c̶a̶s̶s̶c̶f̶

  ==> Input File <==

--------------------------------------------------------------------------
memory 3 GB
molecule mol {
0 1
C 0.00000000000000 -1.27422369200848 -0.58431031876682
C 0.00000000000000 0.00000000000000 0.21760938823234
C 0.00000000000000 1.27422369200848 -0.58431031876682
C 0.00000000000000 0.00000000000000 1.54963654340691
H 0.00000000000000 -2.15656070814089 0.05667757762314
H 0.87802310727551 -1.32431779459382 -1.23710727231696
H -0.87802310727551 -1.32431779459382 -1.23710727231696
H 0.00000000000000 2.15656070814089 0.05667757762314
H 0.87802310727551 1.32431779459382 -1.23710727231696
H -0.87802310727551 1.32431779459382 -1.23710727231696
H 0.00000000000000 -0.92303400838811 2.11822431995798
H 0.00000000000000 0.92303400838811 2.11822431995798
units angstrom
no_reorient
no_com
}
set basis def2-SVP
set scf_type df
set freeze_core true
set e_convergence 8
energy('b3lyp-d3bj')
--------------------------------------------------------------------------

  Memory set to   2.794 GiB by Python driver.

Scratch directory: /Users/hoyoun/Documents/Yonsei_AX_Camp/(진짜_이게_최종)/calibration/dft_work/_scratch/E5/
   => Libint2 <=

    Primary   basis highest AM E, G, H:  7, 6, 3
    Auxiliary basis highest AM E, G, H:  7, 7, 4
    Onebody   basis highest AM E, G, H:  -, -, -
    Solid Harmonics ordering:            Gaussian

*** tstart() called on choehoyun-ui-MacBookAir.local
*** at Mon Aug 10 18:37:07 2026

   => Loading Basis Set <=

    Name: DEF2-SVP
    Role: ORBITAL
    Keyword: BASIS
    atoms 1-4  entry C          line    90 file /Users/hoyoun/micromamba/envs/psi4env/share/psi4/basis/def2-svp.gbs 
    atoms 5-12 entry H          line    15 file /Users/hoyoun/micromamba/envs/psi4env/share/psi4/basis/def2-svp.gbs 

   => B3LYP-D3(BJ): Empirical Dispersion <=

    Grimme's -D3 (BJ-damping) Dispersion Correction
    Grimme S.; Ehrlich S.; Goerigk L. (2011), J. Comput. Chem., 32: 1456

        s6 =       1.000000
        s8 =       1.988900
        a1 =       0.398100
        a2 =       4.421100


         ---------------------------------------------------------
                                   SCF
               by Justin Turney, Rob Parrish, Andy Simmonett
                          and Daniel G. A. Smith
                              RKS Reference
                        8 Threads,   2861 MiB Core
         ---------------------------------------------------------

  ==> Geometry <==

    Molecular point group: c2v
    Full point group: C2v

    Geometry (in Angstrom), charge = 0, multiplicity = 1:

       Center              X                  Y                   Z               Mass       
    ------------   -----------------  -----------------  -----------------  -----------------
         C            0.000000000000    -1.274223692008    -0.584310318767    12.000000000000
         C            0.000000000000     0.000000000000     0.217609388232    12.000000000000
         C           -0.000000000000     1.274223692008    -0.584310318767    12.000000000000
         C            0.000000000000     0.000000000000     1.549636543407    12.000000000000
         H            0.000000000000    -2.156560708141     0.056677577623     1.007825032230
         H            0.878023107276    -1.324317794594    -1.237107272317     1.007825032230
         H           -0.878023107276    -1.324317794594    -1.237107272317     1.007825032230
         H           -0.000000000000     2.156560708141     0.056677577623     1.007825032230
         H            0.878023107276     1.324317794594    -1.237107272317     1.007825032230
         H           -0.878023107276     1.324317794594    -1.237107272317     1.007825032230
         H            0.000000000000    -0.923034008388     2.118224319958     1.007825032230
         H           -0.000000000000     0.923034008388     2.118224319958     1.007825032230

  Running in c2v symmetry.

  Rotational constants: A =      0.30153  B =      0.27985  C =      0.15335 [cm^-1]
  Rotational constants: A =   9039.68843  B =   8389.82855  C =   4597.35813 [MHz]
  Nuclear repulsion =  119.722536296779964

  Charge       = 0
  Multiplicity = 1
  Electrons    = 32
  Nalpha       = 16
  Nbeta        = 16

  ==> Algorithm <==

  SCF Algorithm Type is DF.
  DIIS enabled.
  MOM disabled.
  Fractional occupation disabled.
  Guess Type is SAD.
  Energy threshold   = 1.00e-08
  Density threshold  = 1.00e-06
  Integral threshold = 1.00e-12

  ==> Primary Basis <==

  Basis Set: DEF2-SVP
    Blend: DEF2-SVP
    Number of shells: 48
    Number of basis functions: 96
    Number of Cartesian functions: 100
    Spherical Harmonics?: true
    Max angular momentum: 2

  ==> DFT Potential <==

   => LibXC <=

    Version 7.1.2
    S. Lehtola, C. Steigemann, M. J. T. Oliveira, and M. A. L. Marques,  SoftwareX 7, 1–5 (2018) (10.1016/j.softx.2017.11.002)

   => Composite Functional: B3LYP-D3BJ2B <= 

    B3LYP-d3bj2b Hyb-GGA Exchange-Correlation Functional

    P. J. Stephens, F. J. Devlin, C. F. Chabalowski, and M. J. Frisch,  J. Phys. Chem. 98, 11623 (1994) (10.1021/j100096a001)

    Deriv               =              1
    GGA                 =           TRUE
    Meta                =          FALSE

    Exchange Hybrid     =           TRUE
    MP2 Hybrid          =          FALSE

   => Exchange Functionals <=

    0.0800   Slater exchange
    0.7200         Becke 88

   => Exact (HF) Exchange <=

    0.2000               HF 

   => Correlation Functionals <=

    0.1900   Vosko, Wilk & Nusair (VWN5_RPA)
    0.8100   Lee, Yang & Parr

   => LibXC Density Thresholds  <==

    XC_HYB_GGA_XC_B3LYP:  1.00E-15 

   => Molecular Quadrature <=

    Radial Scheme          =       TREUTLER
    Pruning Scheme         =           NONE
    Nuclear Scheme         =       TREUTLER

    Blocking Scheme        =         OCTREE
    BS radius alpha        =              1
    Pruning alpha          =              1
    Radial Points          =             75
    Spherical Points       =            302
    Total Points           =         256273
    Total Blocks           =           1942
    Max Points             =            256
    Max Functions          =             96
    Weights Tolerance      =       1.00E-15

   => Loading Basis Set <=

    Name: (DEF2-SVP AUX)
    Role: JKFIT
    Keyword: DF_BASIS_SCF
    atoms 1-4  entry C          line   198 file /Users/hoyoun/micromamba/envs/psi4env/share/psi4/basis/def2-universal-jkfit.gbs 
    atoms 5-12 entry H          line    18 file /Users/hoyoun/micromamba/envs/psi4env/share/psi4/basis/def2-universal-jkfit.gbs 

  ==> Integral Setup <==

  DFHelper Memory: AOs need 0.034 GiB; user supplied 1.490 GiB. 
  SCF_SUBTYPE=INCORE selected. In-core MEM_DF algorithm will be used.
  Using in-core AOs.

  ==> MemDFJK: Density-Fitted J/K Matrices <==

    J tasked:                   Yes
    K tasked:                   Yes
    wK tasked:                   No
    OpenMP threads:               8
    Memory [MiB]:              1525
    Algorithm:                 Core
    Schwarz Cutoff:           1E-12
    Mask sparsity (%):       0.1953
    Fitting Condition:        1E-10

   => Auxiliary Basis Set <=

  Basis Set: (DEF2-SVP AUX)
    Blend: DEF2-UNIVERSAL-JKFIT
    Number of shells: 148
    Number of basis functions: 444
    Number of Cartesian functions: 516
    Spherical Harmonics?: true
    Max angular momentum: 4

  Cached 100.0% of DFT collocation blocks in 0.606 [GiB].

  Minimum eigenvalue in the overlap matrix is 2.1931100091E-03.
  Reciprocal condition number of the overlap matrix is 4.0878318633E-04.
    Using symmetric orthogonalization.

  ==> Pre-Iterations <==

  SCF Guess: Superposition of Atomic Densities via on-the-fly atomic UHF (no occupation information).

   -------------------------
    Irrep   Nso     Nmo    
   -------------------------
     A1        37      37 
     A2        13      13 
     B1        17      17 
     B2        29      29 
   -------------------------
    Total      96      96
   -------------------------

  ==> Iterations <==

                           Total Energy        Delta E     RMS |[F,P]|

   @DF-RKS iter SAD:  -156.49065546257063   -1.56491e+02   0.00000e+00 
   @DF-RKS iter   1:  -156.70105745149701   -2.10402e-01   1.66186e-02 DIIS/ADIIS
   @DF-RKS iter   2:  -156.56428603497992    1.36771e-01   1.88248e-02 DIIS/ADIIS
   @DF-RKS iter   3:  -157.12084554595506   -5.56560e-01   2.00561e-03 DIIS/ADIIS
   @DF-RKS iter   4:  -157.12326902333623   -2.42348e-03   1.48528e-03 DIIS/ADIIS
   @DF-RKS iter   5:  -157.12631535636234   -3.04633e-03   1.77082e-04 DIIS/ADIIS
   @DF-RKS iter   6:  -157.12635829112128   -4.29348e-05   5.20323e-05 DIIS
   @DF-RKS iter   7:  -157.12636191526838   -3.62415e-06   4.98016e-06 DIIS
   @DF-RKS iter   8:  -157.12636194822392   -3.29555e-08   6.19604e-07 DIIS
   @DF-RKS iter   9:  -157.12636194882438   -6.00465e-10   1.11324e-07 DIIS
  Energy and wave function converged.


  ==> Post-Iterations <==

   Electrons on quadrature grid:
      Ntotal   =   32.0000040698 ; deviation = 4.070e-06 

    Orbital Energies [Eh]
    ---------------------

    Doubly Occupied:                                                      

       1A1   -10.190617     1B2   -10.181075     2A1   -10.181056  
       3A1   -10.167834     4A1    -0.798460     2B2    -0.686542  
       5A1    -0.672480     6A1    -0.519081     3B2    -0.452460  
       7A1    -0.444114     1B1    -0.432295     1A2    -0.386720  
       4B2    -0.370962     8A1    -0.366389     5B2    -0.339824  
       2B1    -0.247437  

    Virtual:                                                              

       3B1     0.021062     9A1     0.059054    10A1     0.103363  
       6B2     0.107213     7B2     0.120540     4B1     0.133264  
      11A1     0.142343     2A2     0.161569     8B2     0.186733  
      12A1     0.214579     9B2     0.280259    13A1     0.351670  
      14A1     0.399037    10B2     0.429406    15A1     0.436828  
       3A2     0.447778     5B1     0.449498    16A1     0.527470  
      17A1     0.550178     6B1     0.587471    11B2     0.622239  
      18A1     0.644742     7B1     0.646388    19A1     0.657071  
      12B2     0.658848    13B2     0.669914     8B1     0.675588  
      20A1     0.682806     4A2     0.691441    14B2     0.697707  
      15B2     0.716034    21A1     0.733828    22A1     0.854793  
      23A1     0.887100    16B2     1.021414     5A2     1.134688  
      17B2     1.173425     9B1     1.187254     6A2     1.227679  
      18B2     1.394245    24A1     1.490940    10B1     1.503836  
       7A2     1.538651    11B1     1.543744     8A2     1.585034  
      19B2     1.644528    25A1     1.648020    20B2     1.697703  
      12B1     1.758086    26A1     1.767983    27A1     1.798152  
       9A2     1.799533    21B2     1.825464    13B1     1.825735  
      28A1     1.846780    22B2     1.931912    14B1     1.978691  
      29A1     2.000635    23B2     2.014820    10A2     2.137467  
      30A1     2.144804    24B2     2.239145    11A2     2.277496  
      31A1     2.320271    15B1     2.321675    32A1     2.380811  
      25B2     2.418660    12A2     2.546985    26B2     2.593497  
      33A1     2.603002    16B1     2.645721    34A1     2.701404  
      27B2     2.791540    35A1     2.812763    17B1     2.905080  
      28B2     2.917961    36A1     2.947058    13A2     2.964921  
      37A1     3.133434    29B2     3.259724  

    Final Occupation by Irrep:
             A1    A2    B1    B2 
    DOCC [     8,    1,    2,    5 ]
    NA   [     8,    1,    2,    5 ]
    NB   [     8,    1,    2,    5 ]

  @DF-RKS Final Energy:  -157.12636194882438

   => Energetics <=

    Nuclear Repulsion Energy =            119.7225362967799640
    One-Electron Energy =                -446.4536946268200381
    Two-Electron Energy =                 189.5653701942238172
    DFT Exchange-Correlation Energy =     -19.9473774444091880
    Empirical Dispersion Energy =          -0.0131963685988928
    VV10 Nonlocal Energy =                  0.0000000000000000
    Total Energy =                       -157.1263619488243819

Computation Completed


Properties will be evaluated at   0.000000,   0.000000,   0.000000 [a0]

Properties computed using the SCF density matrix


 Multipole Moments:

 ------------------------------------------------------------------------------------
     Multipole            Electronic (a.u.)      Nuclear  (a.u.)        Total (a.u.)
 ------------------------------------------------------------------------------------

 L = 1.  Multiply by 2.5417464519 to convert [e a0] to [Debye]
 Dipole X            :          0.0000000            0.0000000            0.0000000
 Dipole Y            :          0.0000000            0.0000000            0.0000000
 Dipole Z            :         -5.8823990            5.6561893           -0.2262097
 Magnitude           :                                                    0.2262097

 ------------------------------------------------------------------------------------

*** tstop() called on choehoyun-ui-MacBookAir.local at Mon Aug 10 18:37:08 2026
Module time:
	user time   =       6.16 seconds =       0.10 minutes
	system time =       0.19 seconds =       0.00 minutes
	total time  =          1 seconds =       0.02 minutes
Total time:
	user time   =       6.16 seconds =       0.10 minutes
	system time =       0.19 seconds =       0.00 minutes
	total time  =          1 seconds =       0.02 minutes

    Psi4 stopped on: Monday, 10 August 2026 06:37PM
    Psi4 wall time for execution: 0:00:01.44

*** Psi4 exiting successfully. Buy a developer a beer!
