
    -----------------------------------------------------------------------
          Psi4: An Open-Source Ab Initio Electronic Structure Package
                               Psi4 1.11 release

                         Git: Rev {} zzzzzzz 


    D. G. A. Smith, L. A. Burns, A. C. Simmonett, R. M. Parrish,
    M. C. Schieber, R. Galvelis, P. Kraus, H. Kruse, R. Di Remigio,
    A. Alenaizan, A. M. James, S. Lehtola, J. P. Misiewicz, M. Scheurer,
    R. A. Shaw, J. B. Schriber, Y. Xie, Z. L. Glick, D. A. Sirianni,
    J. S. O'Brien, J. M. Waldrop, A. Kumar, E. G. Hohenstein,
    B. P. Pritchard, B. R. Brooks, H. F. Schaefer III, A. Yu. Sokolov,
    K. Patkowski, A. E. DePrince III, U. Bozkaya, R. A. King,
    F. A. Evangelista, J. M. Turney, T. D. Crawford, C. D. Sherrill,
    J. Chem. Phys. 152(18) 184108 (2020). https://doi.org/10.1063/5.0006002

                            Additional Code Authors
    E. T. Seidl, C. L. Janssen, E. F. Valeev, M. L. Leininger,
    J. F. Gonthier, R. M. Richard, H. R. McAlexander, M. Saitow, X. Wang,
    P. Verma, M. H. Lechner, A. Jiang, S. Behnle, A. G. Heide,
    M. F. Herbst, D. L. Poole, T. Győri, E. C. Mitchell, J. P. Pederson,
    and A. M. Wallace

             Previous Authors, Complete List of Code Contributors,
                       and Citations for Specific Modules
    https://github.com/psi4/psi4/blob/master/codemeta.json
    https://github.com/psi4/psi4/graphs/contributors
    https://psicode.org/psi4manual/master/introduction.html#citing-psifour

    -----------------------------------------------------------------------


    Psi4 started on: Monday, 10 August 2026 06:34PM

    Process ID: 75434
    Host:       choehoyun-ui-MacBookAir.local
    PSIDATADIR: /Users/hoyoun/micromamba/envs/psi4env/share/psi4
    Memory:     500.0 MiB
    Threads:    8
    Addons:     a̶d̶c̶c̶, a̶m̶b̶i̶t̶, b̶s̶e̶, c̶c̶t̶3̶, c̶f̶o̶u̶r̶, c̶h̶e̶m̶p̶s̶2̶, c̶p̶p̶e̶, d̶d̶x̶, dftd3,
                d̶f̶t̶d̶4̶, dkh, ecpint, einsums, f̶o̶r̶t̶e̶, gauxc, g̶c̶p̶, g̶d̶m̶a̶,
                g̶e̶o̶m̶e̶t̶r̶i̶c̶, g̶p̶u̶_̶d̶f̶c̶c̶, i̶n̶t̶e̶g̶r̶a̶t̶o̶r̶x̶x̶, i̶p̶i̶,
                l̶i̶b̶e̶f̶p̶, m̶d̶i̶, m̶p̶2̶d̶, m̶r̶c̶c̶, ooo, o̶p̶e̶n̶f̶e̶r̶m̶i̶o̶n̶p̶s̶i̶4̶,
                pcmsolver, p̶s̶i̶4̶f̶o̶c̶k̶c̶i̶, p̶s̶i̶x̶a̶s̶, p̶y̶e̶i̶n̶s̶u̶m̶s̶, r̶e̶s̶p̶,
                s̶i̶m̶i̶n̶t̶, s̶n̶s̶m̶p̶2̶, v̶2̶r̶d̶m̶_̶c̶a̶s̶s̶c̶f̶

  ==> Input File <==

--------------------------------------------------------------------------
memory 3 GB
molecule mol {
0 1
C 0.00000000000000 0.63310695524215 0.00000000000000
C 1.38005590176397 -0.04848599636014 0.00000000000000
C -0.61611695622499 -0.69953495047623 0.00000000000000
C 0.56891295939296 -1.34480690449810 0.00000000000000
H 1.98767785874498 0.12887299107902 0.89023593688101
H 1.98767785874498 0.12887299107902 -0.89023593688101
C -0.40245397155249 1.89877286515298 0.00000000000000
H 0.35438797467782 2.67667880974867 0.00000000000000
C -1.83283386987925 2.34167283361699 0.00000000000000
H -2.51453882130905 1.49150189399330 0.00000000000000
H -2.05961185395674 2.95396479006777 0.87707993788407
H -2.05961185395674 2.95396479006777 -0.87707993788407
H -1.64106788364525 -1.04475092569117 0.00000000000000
C 0.99806292902831 -2.76137980367293 0.00000000000000
H 1.61358188537106 -2.98328078791435 0.87645293803231
H 0.14415798958948 -3.43862675566554 0.00000000000000
H 1.61358188537106 -2.98328078791435 -0.87645293803231
units angstrom
no_reorient
no_com
}
set basis def2-SVP
set scf_type df
set freeze_core true
set e_convergence 8
energy('b3lyp-d3bj')
--------------------------------------------------------------------------

  Memory set to   2.794 GiB by Python driver.

Scratch directory: /Users/hoyoun/Documents/Yonsei_AX_Camp/(진짜_이게_최종)/calibration/dft_work/_scratch/R47/
   => Libint2 <=

    Primary   basis highest AM E, G, H:  7, 6, 3
    Auxiliary basis highest AM E, G, H:  7, 7, 4
    Onebody   basis highest AM E, G, H:  -, -, -
    Solid Harmonics ordering:            Gaussian

*** tstart() called on choehoyun-ui-MacBookAir.local
*** at Mon Aug 10 18:34:00 2026

   => Loading Basis Set <=

    Name: DEF2-SVP
    Role: ORBITAL
    Keyword: BASIS
    atoms 1-4, 7, 9, 14        entry C          line    90 file /Users/hoyoun/micromamba/envs/psi4env/share/psi4/basis/def2-svp.gbs 
    atoms 5-6, 8, 10-13, 15-17 entry H          line    15 file /Users/hoyoun/micromamba/envs/psi4env/share/psi4/basis/def2-svp.gbs 

   => B3LYP-D3(BJ): Empirical Dispersion <=

    Grimme's -D3 (BJ-damping) Dispersion Correction
    Grimme S.; Ehrlich S.; Goerigk L. (2011), J. Comput. Chem., 32: 1456

        s6 =       1.000000
        s8 =       1.988900
        a1 =       0.398100
        a2 =       4.421100


         ---------------------------------------------------------
                                   SCF
               by Justin Turney, Rob Parrish, Andy Simmonett
                          and Daniel G. A. Smith
                              RKS Reference
                        8 Threads,   2861 MiB Core
         ---------------------------------------------------------

  ==> Geometry <==

    Molecular point group: cs
    Full point group: Cs

    Geometry (in Angstrom), charge = 0, multiplicity = 1:

       Center              X                  Y                   Z               Mass       
    ------------   -----------------  -----------------  -----------------  -----------------
         C            0.000000000000     0.633106955242     0.000000000000    12.000000000000
         C            1.380055901764    -0.048485996360     0.000000000000    12.000000000000
         C           -0.616116956225    -0.699534950476     0.000000000000    12.000000000000
         C            0.568912959393    -1.344806904498     0.000000000000    12.000000000000
         H            1.987677858745     0.128872991079     0.890235936881     1.007825032230
         H            1.987677858745     0.128872991079    -0.890235936881     1.007825032230
         C           -0.402453971552     1.898772865153     0.000000000000    12.000000000000
         H            0.354387974678     2.676678809749     0.000000000000     1.007825032230
         C           -1.832833869879     2.341672833617     0.000000000000    12.000000000000
         H           -2.514538821309     1.491501893993     0.000000000000     1.007825032230
         H           -2.059611853957     2.953964790068     0.877079937884     1.007825032230
         H           -2.059611853957     2.953964790068    -0.877079937884     1.007825032230
         H           -1.641067883645    -1.044750925691     0.000000000000     1.007825032230
         C            0.998062929028    -2.761379803673     0.000000000000    12.000000000000
         H            1.613581885371    -2.983280787914     0.876452938032     1.007825032230
         H            0.144157989589    -3.438626755666     0.000000000000     1.007825032230
         H            1.613581885371    -2.983280787914    -0.876452938032     1.007825032230

  Running in cs symmetry.

  Rotational constants: A =      0.28677  B =      0.04707  C =      0.04137 [cm^-1]
  Rotational constants: A =   8597.19867  B =   1411.16987  C =   1240.13583 [MHz]
  Nuclear repulsion =  273.990698915206167

  Charge       = 0
  Multiplicity = 1
  Electrons    = 52
  Nalpha       = 26
  Nbeta        = 26

  ==> Algorithm <==

  SCF Algorithm Type is DF.
  DIIS enabled.
  MOM disabled.
  Fractional occupation disabled.
  Guess Type is SAD.
  Energy threshold   = 1.00e-08
  Density threshold  = 1.00e-06
  Integral threshold = 1.00e-12

  ==> Primary Basis <==

  Basis Set: DEF2-SVP
    Blend: DEF2-SVP
    Number of shells: 72
    Number of basis functions: 148
    Number of Cartesian functions: 155
    Spherical Harmonics?: true
    Max angular momentum: 2

  ==> DFT Potential <==

   => LibXC <=

    Version 7.1.2
    S. Lehtola, C. Steigemann, M. J. T. Oliveira, and M. A. L. Marques,  SoftwareX 7, 1–5 (2018) (10.1016/j.softx.2017.11.002)

   => Composite Functional: B3LYP-D3BJ2B <= 

    B3LYP-d3bj2b Hyb-GGA Exchange-Correlation Functional

    P. J. Stephens, F. J. Devlin, C. F. Chabalowski, and M. J. Frisch,  J. Phys. Chem. 98, 11623 (1994) (10.1021/j100096a001)

    Deriv               =              1
    GGA                 =           TRUE
    Meta                =          FALSE

    Exchange Hybrid     =           TRUE
    MP2 Hybrid          =          FALSE

   => Exchange Functionals <=

    0.0800   Slater exchange
    0.7200         Becke 88

   => Exact (HF) Exchange <=

    0.2000               HF 

   => Correlation Functionals <=

    0.1900   Vosko, Wilk & Nusair (VWN5_RPA)
    0.8100   Lee, Yang & Parr

   => LibXC Density Thresholds  <==

    XC_HYB_GGA_XC_B3LYP:  1.00E-15 

   => Molecular Quadrature <=

    Radial Scheme          =       TREUTLER
    Pruning Scheme         =           NONE
    Nuclear Scheme         =       TREUTLER

    Blocking Scheme        =         OCTREE
    BS radius alpha        =              1
    Pruning alpha          =              1
    Radial Points          =             75
    Spherical Points       =            302
    Total Points           =         359747
    Total Blocks           =           2668
    Max Points             =            256
    Max Functions          =            139
    Weights Tolerance      =       1.00E-15

   => Loading Basis Set <=

    Name: (DEF2-SVP AUX)
    Role: JKFIT
    Keyword: DF_BASIS_SCF
    atoms 1-4, 7, 9, 14        entry C          line   198 file /Users/hoyoun/micromamba/envs/psi4env/share/psi4/basis/def2-universal-jkfit.gbs 
    atoms 5-6, 8, 10-13, 15-17 entry H          line    18 file /Users/hoyoun/micromamba/envs/psi4env/share/psi4/basis/def2-universal-jkfit.gbs 

  ==> Integral Setup <==

  DFHelper Memory: AOs need 0.115 GiB; user supplied 1.015 GiB. 
  SCF_SUBTYPE=INCORE selected. In-core MEM_DF algorithm will be used.
  Using in-core AOs.

  ==> MemDFJK: Density-Fitted J/K Matrices <==

    J tasked:                   Yes
    K tasked:                   Yes
    wK tasked:                   No
    OpenMP threads:               8
    Memory [MiB]:              1038
    Algorithm:                 Core
    Schwarz Cutoff:           1E-12
    Mask sparsity (%):       7.9894
    Fitting Condition:        1E-10

   => Auxiliary Basis Set <=

  Basis Set: (DEF2-SVP AUX)
    Blend: DEF2-UNIVERSAL-JKFIT
    Number of shells: 235
    Number of basis functions: 705
    Number of Cartesian functions: 823
    Spherical Harmonics?: true
    Max angular momentum: 4

  Cached 100.0% of DFT collocation blocks in 1.081 [GiB].

  Minimum eigenvalue in the overlap matrix is 4.6511192656E-04.
  Reciprocal condition number of the overlap matrix is 7.4785729009E-05.
    Using symmetric orthogonalization.

  ==> Pre-Iterations <==

  SCF Guess: Superposition of Atomic Densities via on-the-fly atomic UHF (no occupation information).

   -------------------------
    Irrep   Nso     Nmo    
   -------------------------
     A'       101     101 
     A"        47      47 
   -------------------------
    Total     148     148
   -------------------------

  ==> Iterations <==

                           Total Energy        Delta E     RMS |[F,P]|

   @DF-RKS iter SAD:  -271.99238117792669   -2.71992e+02   0.00000e+00 
   @DF-RKS iter   1:  -271.95652710689399    3.58541e-02   8.82567e-03 DIIS/ADIIS
   @DF-RKS iter   2:  -271.81791882136224    1.38608e-01   9.87603e-03 DIIS/ADIIS
   @DF-RKS iter   3:  -272.52160300054709   -7.03684e-01   9.72034e-04 DIIS/ADIIS
   @DF-RKS iter   4:  -272.52367963864663   -2.07664e-03   7.80881e-04 DIIS/ADIIS
   @DF-RKS iter   5:  -272.52748467890638   -3.80504e-03   1.57224e-04 DIIS/ADIIS
   @DF-RKS iter   6:  -272.52763565347931   -1.50975e-04   5.53527e-05 DIIS
   @DF-RKS iter   7:  -272.52765395483311   -1.83014e-05   2.04294e-05 DIIS
   @DF-RKS iter   8:  -272.52765647613978   -2.52131e-06   3.99116e-06 DIIS
   @DF-RKS iter   9:  -272.52765657715327   -1.01013e-07   8.21634e-07 DIIS
   @DF-RKS iter  10:  -272.52765658124264   -4.08937e-09   2.47477e-07 DIIS
  Energy and wave function converged.


  ==> Post-Iterations <==

   Electrons on quadrature grid:
      Ntotal   =   52.0000196496 ; deviation = 1.965e-05 

    Orbital Energies [Eh]
    ---------------------

    Doubly Occupied:                                                      

       1Ap   -10.193294     2Ap   -10.189130     3Ap   -10.183788  
       4Ap   -10.180064     5Ap   -10.177722     6Ap   -10.176502  
       7Ap   -10.170920     8Ap    -0.861960     9Ap    -0.761095  
      10Ap    -0.723118    11Ap    -0.652924    12Ap    -0.640383  
      13Ap    -0.531482    14Ap    -0.506379    15Ap    -0.467539  
       1App   -0.445058    16Ap    -0.436923    17Ap    -0.412269  
       2App   -0.408344     3App   -0.399929    18Ap    -0.378126  
      19Ap    -0.351754    20Ap    -0.327685    21Ap    -0.315071  
       4App   -0.285866     5App   -0.212637  

    Virtual:                                                              

       6App   -0.008683    22Ap     0.066393     7App    0.070104  
      23Ap     0.077212    24Ap     0.099695    25Ap     0.110744  
      26Ap     0.119750    27Ap     0.134398     8App    0.138190  
       9App    0.143229    28Ap     0.157605    10App    0.166421  
      29Ap     0.186097    30Ap     0.206748    31Ap     0.244403  
      32Ap     0.277051    33Ap     0.323824    34Ap     0.348189  
      35Ap     0.370086    36Ap     0.393504    37Ap     0.404436  
      38Ap     0.433894    11App    0.444240    12App    0.463527  
      39Ap     0.473494    40Ap     0.511911    41Ap     0.516910  
      13App    0.518755    14App    0.573847    15App    0.583980  
      42Ap     0.592134    43Ap     0.601311    44Ap     0.618173  
      45Ap     0.642526    16App    0.644355    46Ap     0.646143  
      47Ap     0.659723    48Ap     0.667870    49Ap     0.674180  
      17App    0.675473    50Ap     0.684249    18App    0.687784  
      51Ap     0.696464    19App    0.706538    52Ap     0.713964  
      53Ap     0.732190    54Ap     0.732929    55Ap     0.796318  
      20App    0.796583    56Ap     0.869525    57Ap     0.884390  
      58Ap     0.908414    59Ap     0.970002    60Ap     1.066929  
      61Ap     1.087144    21App    1.138976    22App    1.156176  
      62Ap     1.196542    23App    1.211260    63Ap     1.235400  
      24App    1.292420    64Ap     1.383916    65Ap     1.492140  
      25App    1.492161    26App    1.508873    27App    1.532916  
      66Ap     1.545629    28App    1.547032    29App    1.565335  
      30App    1.603461    67Ap     1.616842    68Ap     1.689551  
      31App    1.716115    69Ap     1.734073    70Ap     1.737487  
      71Ap     1.761229    72Ap     1.790609    32App    1.792293  
      33App    1.804926    73Ap     1.816093    34App    1.837229  
      74Ap     1.861014    35App    1.888042    75Ap     1.890156  
      76Ap     1.918135    77Ap     1.967516    36App    1.977954  
      78Ap     2.009175    79Ap     2.031129    80Ap     2.077617  
      37App    2.087857    81Ap     2.140759    38App    2.161415  
      82Ap     2.162649    83Ap     2.214083    84Ap     2.253093  
      39App    2.273754    40App    2.311771    85Ap     2.341826  
      86Ap     2.400104    41App    2.425419    87Ap     2.433854  
      88Ap     2.485024    42App    2.504771    89Ap     2.512389  
      90Ap     2.588559    91Ap     2.620221    43App    2.624280  
      44App    2.675634    92Ap     2.714720    93Ap     2.753867  
      94Ap     2.826173    95Ap     2.836527    96Ap     2.878836  
      97Ap     2.914301    45App    2.916459    46App    2.947031  
      98Ap     3.027362    47App    3.041530    99Ap     3.071270  
     100Ap     3.303442   101Ap     3.418109  

    Final Occupation by Irrep:
             Ap   App 
    DOCC [    21,    5 ]
    NA   [    21,    5 ]
    NB   [    21,    5 ]

  @DF-RKS Final Energy:  -272.52765658124264

   => Energetics <=

    Nuclear Repulsion Energy =            273.9906989152061669
    One-Electron Energy =                -907.9658292155754680
    Two-Electron Energy =                 395.1929744488179495
    DFT Exchange-Correlation Energy =     -33.7225243483087311
    Empirical Dispersion Energy =          -0.0229763813825501
    VV10 Nonlocal Energy =                  0.0000000000000000
    Total Energy =                       -272.5276565812426384

Computation Completed


Properties will be evaluated at   0.000000,   0.000000,   0.000000 [a0]

Properties computed using the SCF density matrix


 Multipole Moments:

 ------------------------------------------------------------------------------------
     Multipole            Electronic (a.u.)      Nuclear  (a.u.)        Total (a.u.)
 ------------------------------------------------------------------------------------

 L = 1.  Multiply by 2.5417464519 to convert [e a0] to [Debye]
 Dipole X            :          0.1152801           -0.0000057            0.1152744
 Dipole Y            :         -0.2790518           -0.0000246           -0.2790764
 Dipole Z            :          0.0000000            0.0000000            0.0000000
 Magnitude           :                                                    0.3019467

 ------------------------------------------------------------------------------------

*** tstop() called on choehoyun-ui-MacBookAir.local at Mon Aug 10 18:34:04 2026
Module time:
	user time   =      18.99 seconds =       0.32 minutes
	system time =       0.48 seconds =       0.01 minutes
	total time  =          4 seconds =       0.07 minutes
Total time:
	user time   =      18.99 seconds =       0.32 minutes
	system time =       0.48 seconds =       0.01 minutes
	total time  =          4 seconds =       0.07 minutes

    Psi4 stopped on: Monday, 10 August 2026 06:34PM
    Psi4 wall time for execution: 0:00:03.53

*** Psi4 exiting successfully. Buy a developer a beer!
