
    -----------------------------------------------------------------------
          Psi4: An Open-Source Ab Initio Electronic Structure Package
                               Psi4 1.11 release

                         Git: Rev {} zzzzzzz 


    D. G. A. Smith, L. A. Burns, A. C. Simmonett, R. M. Parrish,
    M. C. Schieber, R. Galvelis, P. Kraus, H. Kruse, R. Di Remigio,
    A. Alenaizan, A. M. James, S. Lehtola, J. P. Misiewicz, M. Scheurer,
    R. A. Shaw, J. B. Schriber, Y. Xie, Z. L. Glick, D. A. Sirianni,
    J. S. O'Brien, J. M. Waldrop, A. Kumar, E. G. Hohenstein,
    B. P. Pritchard, B. R. Brooks, H. F. Schaefer III, A. Yu. Sokolov,
    K. Patkowski, A. E. DePrince III, U. Bozkaya, R. A. King,
    F. A. Evangelista, J. M. Turney, T. D. Crawford, C. D. Sherrill,
    J. Chem. Phys. 152(18) 184108 (2020). https://doi.org/10.1063/5.0006002

                            Additional Code Authors
    E. T. Seidl, C. L. Janssen, E. F. Valeev, M. L. Leininger,
    J. F. Gonthier, R. M. Richard, H. R. McAlexander, M. Saitow, X. Wang,
    P. Verma, M. H. Lechner, A. Jiang, S. Behnle, A. G. Heide,
    M. F. Herbst, D. L. Poole, T. Győri, E. C. Mitchell, J. P. Pederson,
    and A. M. Wallace

             Previous Authors, Complete List of Code Contributors,
                       and Citations for Specific Modules
    https://github.com/psi4/psi4/blob/master/codemeta.json
    https://github.com/psi4/psi4/graphs/contributors
    https://psicode.org/psi4manual/master/introduction.html#citing-psifour

    -----------------------------------------------------------------------


    Psi4 started on: Monday, 10 August 2026 08:17PM

    Process ID: 79970
    Host:       choehoyun-ui-MacBookAir.local
    PSIDATADIR: /Users/hoyoun/micromamba/envs/psi4env/share/psi4
    Memory:     500.0 MiB
    Threads:    8
    Addons:     a̶d̶c̶c̶, a̶m̶b̶i̶t̶, b̶s̶e̶, c̶c̶t̶3̶, c̶f̶o̶u̶r̶, c̶h̶e̶m̶p̶s̶2̶, c̶p̶p̶e̶, d̶d̶x̶, dftd3,
                d̶f̶t̶d̶4̶, dkh, ecpint, einsums, f̶o̶r̶t̶e̶, gauxc, g̶c̶p̶, g̶d̶m̶a̶,
                g̶e̶o̶m̶e̶t̶r̶i̶c̶, g̶p̶u̶_̶d̶f̶c̶c̶, i̶n̶t̶e̶g̶r̶a̶t̶o̶r̶x̶x̶, i̶p̶i̶,
                l̶i̶b̶e̶f̶p̶, m̶d̶i̶, m̶p̶2̶d̶, m̶r̶c̶c̶, ooo, o̶p̶e̶n̶f̶e̶r̶m̶i̶o̶n̶p̶s̶i̶4̶,
                pcmsolver, p̶s̶i̶4̶f̶o̶c̶k̶c̶i̶, p̶s̶i̶x̶a̶s̶, p̶y̶e̶i̶n̶s̶u̶m̶s̶, r̶e̶s̶p̶,
                s̶i̶m̶i̶n̶t̶, s̶n̶s̶m̶p̶2̶, v̶2̶r̶d̶m̶_̶c̶a̶s̶s̶c̶f̶

  ==> Input File <==

--------------------------------------------------------------------------
memory 3 GB
molecule mol {
0 1
C -4.15324401361673 -1.68877853174362 0.63418251162121
C -5.42960769849829 -0.82312397766575 0.68859818943237
C -5.07851213337411 0.66823653487514 0.75162476625613
C -4.20386421003052 1.05688249224150 -0.45772183853321
C -2.96547415726081 0.18791909266387 -0.57371162130418
C -3.22740198301532 -1.26841503966048 -0.49466846693724
C 1.03567896134302 2.06320083937066 -1.19680056302252
C 0.75601259764466 0.60199751838335 -0.90783303064397
C -0.46608625968667 0.05383978883753 -0.71155144052748
C -1.73349283876991 0.74983433188971 -0.68963197248873
C 2.05596420549859 2.67934138400982 -0.20345472103853
C 2.03108504124146 -0.19051094758378 -0.83577145319697
C 3.33292419505530 1.82396945482347 -0.07409301385842
C 2.99327638129590 0.36512902142313 0.26369697128234
C 2.03072016748211 -1.70772586269008 -0.58977808539815
C 4.17225359382578 -0.62837228287744 0.11733207694140
C 2.35611927651131 0.26821502725584 1.66409605756259
C 3.47425160522151 -2.00874924951961 -0.07632563942247
C -2.72567454440402 -2.15745999733726 -1.36690886966430
O -6.24804744868177 1.49675616522673 0.84511336413115
C 5.21318082926800 -0.61027582347430 1.23738071908979
H -4.41102526276914 -2.75078007925992 0.53678692492285
H -3.61646945750370 -1.56535019821329 1.58880525763212
H -6.03231390021123 -1.00141635240058 -0.21668938005045
H -6.04177613392583 -1.09262098243540 1.55845448159382
H -4.52019187961652 0.86961459677354 1.67544134607546
H -4.82936939084007 0.92435833044655 -1.35944925877247
H -3.93215874084704 2.11724172869094 -0.39094704773411
H 0.12085864874026 2.66464992276384 -1.20666034925328
H 1.47106898942073 2.12740373135189 -2.20864897038394
H -0.51442218622319 -1.01988485657349 -0.54244607170247
H -1.70601267537203 1.83937873201651 -0.73197127823519
H 2.31598855128480 3.69299974618611 -0.53714970594372
H 1.58038911388581 2.77848677783556 0.78117707387820
H 2.56538692800749 -0.01282094934677 -1.78713757630239
H 3.87815130642546 1.83869089073886 -1.03125010027242
H 3.99752099544439 2.25281462260235 0.68974556382395
H 1.77475354112639 -2.26979532190949 -1.49536349524217
H 1.29213497093656 -1.96808360304769 0.17752155046342
H 4.67677484438581 -0.36506067969884 -0.82542474609320
H 1.37937670310690 0.76208654773614 1.68647148079510
H 2.20777021226640 -0.77638124155738 1.96138629132233
H 3.00637639449304 0.74427708806524 2.40865681303007
H 4.03802908809665 -2.63697266602858 -0.77631832280016
H 3.43816514865677 -2.54693728506251 0.87995953774873
H -2.95735748290563 -3.21880441332709 -1.27982666361794
H -2.08213344905805 -1.84403486541428 -2.18600501806679
H -6.76151174476631 1.35173884768540 0.03671267588634
H 4.76303039772029 -0.90798477176423 2.19320229575818
H 6.03092948529792 -1.31011296584661 1.01802117906238
H 5.64797541769365 0.39138973054493 1.35917157219686
units angstrom
no_reorient
no_com
}
set basis def2-SVP
set scf_type disk_df
set freeze_core true
set e_convergence 8
energy('b3lyp-d3bj')
--------------------------------------------------------------------------

  Memory set to   2.794 GiB by Python driver.

Scratch directory: /Users/hoyoun/Documents/Yonsei_AX_Camp/(진짜_이게_최종)/calibration/dft_work/_scratch/i7p/
   => Libint2 <=

    Primary   basis highest AM E, G, H:  7, 6, 3
    Auxiliary basis highest AM E, G, H:  7, 7, 4
    Onebody   basis highest AM E, G, H:  -, -, -
    Solid Harmonics ordering:            Gaussian

*** tstart() called on choehoyun-ui-MacBookAir.local
*** at Mon Aug 10 20:17:20 2026

   => Loading Basis Set <=

    Name: DEF2-SVP
    Role: ORBITAL
    Keyword: BASIS
    atoms 1-19, 21 entry C          line    90 file /Users/hoyoun/micromamba/envs/psi4env/share/psi4/basis/def2-svp.gbs 
    atoms 20       entry O          line   130 file /Users/hoyoun/micromamba/envs/psi4env/share/psi4/basis/def2-svp.gbs 
    atoms 22-51    entry H          line    15 file /Users/hoyoun/micromamba/envs/psi4env/share/psi4/basis/def2-svp.gbs 

   => B3LYP-D3(BJ): Empirical Dispersion <=

    Grimme's -D3 (BJ-damping) Dispersion Correction
    Grimme S.; Ehrlich S.; Goerigk L. (2011), J. Comput. Chem., 32: 1456

        s6 =       1.000000
        s8 =       1.988900
        a1 =       0.398100
        a2 =       4.421100


         ---------------------------------------------------------
                                   SCF
               by Justin Turney, Rob Parrish, Andy Simmonett
                          and Daniel G. A. Smith
                              RKS Reference
                        8 Threads,   2861 MiB Core
         ---------------------------------------------------------

  ==> Geometry <==

    Molecular point group: c1
    Full point group: C1

    Geometry (in Angstrom), charge = 0, multiplicity = 1:

       Center              X                  Y                   Z               Mass       
    ------------   -----------------  -----------------  -----------------  -----------------
         C           -4.153244013617    -1.688778531744     0.634182511621    12.000000000000
         C           -5.429607698498    -0.823123977666     0.688598189432    12.000000000000
         C           -5.078512133374     0.668236534875     0.751624766256    12.000000000000
         C           -4.203864210031     1.056882492242    -0.457721838533    12.000000000000
         C           -2.965474157261     0.187919092664    -0.573711621304    12.000000000000
         C           -3.227401983015    -1.268415039660    -0.494668466937    12.000000000000
         C            1.035678961343     2.063200839371    -1.196800563023    12.000000000000
         C            0.756012597645     0.601997518383    -0.907833030644    12.000000000000
         C           -0.466086259687     0.053839788838    -0.711551440527    12.000000000000
         C           -1.733492838770     0.749834331890    -0.689631972489    12.000000000000
         C            2.055964205499     2.679341384010    -0.203454721039    12.000000000000
         C            2.031085041241    -0.190510947584    -0.835771453197    12.000000000000
         C            3.332924195055     1.823969454823    -0.074093013858    12.000000000000
         C            2.993276381296     0.365129021423     0.263696971282    12.000000000000
         C            2.030720167482    -1.707725862690    -0.589778085398    12.000000000000
         C            4.172253593826    -0.628372282877     0.117332076941    12.000000000000
         C            2.356119276511     0.268215027256     1.664096057563    12.000000000000
         C            3.474251605222    -2.008749249520    -0.076325639422    12.000000000000
         C           -2.725674544404    -2.157459997337    -1.366908869664    12.000000000000
         O           -6.248047448682     1.496756165227     0.845113364131    15.994914619570
         C            5.213180829268    -0.610275823474     1.237380719090    12.000000000000
         H           -4.411025262769    -2.750780079260     0.536786924923     1.007825032230
         H           -3.616469457504    -1.565350198213     1.588805257632     1.007825032230
         H           -6.032313900211    -1.001416352401    -0.216689380050     1.007825032230
         H           -6.041776133926    -1.092620982435     1.558454481594     1.007825032230
         H           -4.520191879617     0.869614596774     1.675441346075     1.007825032230
         H           -4.829369390840     0.924358330447    -1.359449258772     1.007825032230
         H           -3.932158740847     2.117241728691    -0.390947047734     1.007825032230
         H            0.120858648740     2.664649922764    -1.206660349253     1.007825032230
         H            1.471068989421     2.127403731352    -2.208648970384     1.007825032230
         H           -0.514422186223    -1.019884856573    -0.542446071702     1.007825032230
         H           -1.706012675372     1.839378732017    -0.731971278235     1.007825032230
         H            2.315988551285     3.692999746186    -0.537149705944     1.007825032230
         H            1.580389113886     2.778486777836     0.781177073878     1.007825032230
         H            2.565386928007    -0.012820949347    -1.787137576302     1.007825032230
         H            3.878151306425     1.838690890739    -1.031250100272     1.007825032230
         H            3.997520995444     2.252814622602     0.689745563824     1.007825032230
         H            1.774753541126    -2.269795321909    -1.495363495242     1.007825032230
         H            1.292134970937    -1.968083603048     0.177521550463     1.007825032230
         H            4.676774844386    -0.365060679699    -0.825424746093     1.007825032230
         H            1.379376703107     0.762086547736     1.686471480795     1.007825032230
         H            2.207770212266    -0.776381241557     1.961386291322     1.007825032230
         H            3.006376394493     0.744277088065     2.408656813030     1.007825032230
         H            4.038029088097    -2.636972666029    -0.776318322800     1.007825032230
         H            3.438165148657    -2.546937285063     0.879959537749     1.007825032230
         H           -2.957357482906    -3.218804413327    -1.279826663618     1.007825032230
         H           -2.082133449058    -1.844034865414    -2.186005018067     1.007825032230
         H           -6.761511744766     1.351738847685     0.036712675886     1.007825032230
         H            4.763030397720    -0.907984771764     2.193202295758     1.007825032230
         H            6.030929485298    -1.310112965847     1.018021179062     1.007825032230
         H            5.647975417694     0.391389730545     1.359171572197     1.007825032230

  Running in c1 symmetry.

  Rotational constants: A =      0.02152  B =      0.00434  C =      0.00399 [cm^-1]
  Rotational constants: A =    645.12556  B =    130.23465  C =    119.61461 [MHz]
  Nuclear repulsion = 1707.370130881806290

  Charge       = 0
  Multiplicity = 1
  Electrons    = 158
  Nalpha       = 79
  Nbeta        = 79

  ==> Algorithm <==

  SCF Algorithm Type is DISK_DF.
  DIIS enabled.
  MOM disabled.
  Fractional occupation disabled.
  Guess Type is SAD.
  Energy threshold   = 1.00e-08
  Density threshold  = 1.00e-06
  Integral threshold = 1.00e-12

  ==> Primary Basis <==

  Basis Set: DEF2-SVP
    Blend: DEF2-SVP
    Number of shells: 216
    Number of basis functions: 444
    Number of Cartesian functions: 465
    Spherical Harmonics?: true
    Max angular momentum: 2

  ==> DFT Potential <==

   => LibXC <=

    Version 7.1.2
    S. Lehtola, C. Steigemann, M. J. T. Oliveira, and M. A. L. Marques,  SoftwareX 7, 1–5 (2018) (10.1016/j.softx.2017.11.002)

   => Composite Functional: B3LYP-D3BJ2B <= 

    B3LYP-d3bj2b Hyb-GGA Exchange-Correlation Functional

    P. J. Stephens, F. J. Devlin, C. F. Chabalowski, and M. J. Frisch,  J. Phys. Chem. 98, 11623 (1994) (10.1021/j100096a001)

    Deriv               =              1
    GGA                 =           TRUE
    Meta                =          FALSE

    Exchange Hybrid     =           TRUE
    MP2 Hybrid          =          FALSE

   => Exchange Functionals <=

    0.0800   Slater exchange
    0.7200         Becke 88

   => Exact (HF) Exchange <=

    0.2000               HF 

   => Correlation Functionals <=

    0.1900   Vosko, Wilk & Nusair (VWN5_RPA)
    0.8100   Lee, Yang & Parr

   => LibXC Density Thresholds  <==

    XC_HYB_GGA_XC_B3LYP:  1.00E-15 

   => Molecular Quadrature <=

    Radial Scheme          =       TREUTLER
    Pruning Scheme         =           NONE
    Nuclear Scheme         =       TREUTLER

    Blocking Scheme        =         OCTREE
    BS radius alpha        =              1
    Pruning alpha          =              1
    Radial Points          =             75
    Spherical Points       =            302
    Total Points           =        1039650
    Total Blocks           =           7239
    Max Points             =            256
    Max Functions          =            313
    Weights Tolerance      =       1.00E-15

   => Loading Basis Set <=

    Name: (DEF2-SVP AUX)
    Role: JKFIT
    Keyword: DF_BASIS_SCF
    atoms 1-19, 21 entry C          line   198 file /Users/hoyoun/micromamba/envs/psi4env/share/psi4/basis/def2-universal-jkfit.gbs 
    atoms 20       entry O          line   318 file /Users/hoyoun/micromamba/envs/psi4env/share/psi4/basis/def2-universal-jkfit.gbs 
    atoms 22-51    entry H          line    18 file /Users/hoyoun/micromamba/envs/psi4env/share/psi4/basis/def2-universal-jkfit.gbs 

  ==> Integral Setup <==

  ==> DiskDFJK: Density-Fitted J/K Matrices <==

    J tasked:                  Yes
    K tasked:                  Yes
    wK tasked:                  No
    OpenMP threads:              8
    Integrals threads:           8
    Memory [MiB]:             1238
    Algorithm:                Disk
    Integral Cache:           NONE
    Schwarz Cutoff:          1E-12
    Fitting Condition:       1E-10

   => Auxiliary Basis Set <=

  Basis Set: (DEF2-SVP AUX)
    Blend: DEF2-UNIVERSAL-JKFIT
    Number of shells: 705
    Number of basis functions: 2117
    Number of Cartesian functions: 2473
    Spherical Harmonics?: true
    Max angular momentum: 4

  Cached 14.3% of DFT collocation blocks in 0.823 [GiB].

  Minimum eigenvalue in the overlap matrix is 4.8971367994E-04.
  Reciprocal condition number of the overlap matrix is 5.9741246197E-05.
    Using symmetric orthogonalization.

  ==> Pre-Iterations <==

  SCF Guess: Superposition of Atomic Densities via on-the-fly atomic UHF (no occupation information).

   -------------------------
    Irrep   Nso     Nmo    
   -------------------------
     A        444     444 
   -------------------------
    Total     444     444
   -------------------------

  ==> Iterations <==

                           Total Energy        Delta E     RMS |[F,P]|

   @DF-RKS iter SAD:  -854.09557424428647   -8.54096e+02   0.00000e+00 
   @DF-RKS iter   1:  -853.36060281721268    7.34971e-01   3.67155e-03 ADIIS/DIIS
   @DF-RKS iter   2:  -852.53200437865382    8.28598e-01   4.63699e-03 ADIIS/DIIS
   @DF-RKS iter   3:  -854.82971016989234   -2.29771e+00   6.93355e-04 ADIIS/DIIS
   @DF-RKS iter   4:  -854.86617085281853   -3.64607e-02   3.42450e-04 ADIIS/DIIS
   @DF-RKS iter   5:  -854.87695480743491   -1.07840e-02   1.10682e-04 ADIIS/DIIS
   @DF-RKS iter   6:  -854.87808945398660   -1.13465e-03   3.46084e-05 DIIS
   @DF-RKS iter   7:  -854.87819727555370   -1.07822e-04   1.07626e-05 DIIS
   @DF-RKS iter   8:  -854.87820744249848   -1.01669e-05   4.74197e-06 DIIS
   @DF-RKS iter   9:  -854.87820969771906   -2.25522e-06   9.51232e-07 DIIS
   @DF-RKS iter  10:  -854.87820978522348   -8.75044e-08   2.86499e-07 DIIS
   @DF-RKS iter  11:  -854.87820979262142   -7.39794e-09   9.89448e-08 DIIS
  Energy and wave function converged.


  ==> Post-Iterations <==

   Electrons on quadrature grid:
      Ntotal   =  157.9997224462 ; deviation = -2.776e-04 

    Orbital Energies [Eh]
    ---------------------

    Doubly Occupied:                                                      

       1A    -19.124994     2A    -10.232911     3A    -10.194743  
       4A    -10.191371     5A    -10.190529     6A    -10.186906  
       7A    -10.186261     8A    -10.186146     9A    -10.186083  
      10A    -10.184761    11A    -10.183526    12A    -10.183449  
      13A    -10.181308    14A    -10.181031    15A    -10.179332  
      16A    -10.178732    17A    -10.176954    18A    -10.176822  
      19A    -10.175156    20A    -10.173653    21A    -10.171183  
      22A     -0.999274    23A     -0.858358    24A     -0.839209  
      25A     -0.801167    26A     -0.777438    27A     -0.758060  
      28A     -0.753530    29A     -0.728814    30A     -0.720758  
      31A     -0.693591    32A     -0.672486    33A     -0.660466  
      34A     -0.637585    35A     -0.632224    36A     -0.590869  
      37A     -0.589605    38A     -0.580253    39A     -0.567987  
      40A     -0.525201    41A     -0.514373    42A     -0.503494  
      43A     -0.490658    44A     -0.482331    45A     -0.471391  
      46A     -0.456145    47A     -0.454765    48A     -0.452848  
      49A     -0.440939    50A     -0.435997    51A     -0.431719  
      52A     -0.427261    53A     -0.419774    54A     -0.413275  
      55A     -0.409665    56A     -0.400243    57A     -0.392948  
      58A     -0.387353    59A     -0.384139    60A     -0.379768  
      61A     -0.373022    62A     -0.369966    63A     -0.360410  
      64A     -0.357697    65A     -0.352298    66A     -0.345458  
      67A     -0.333733    68A     -0.327860    69A     -0.326394  
      70A     -0.322360    71A     -0.317728    72A     -0.315405  
      73A     -0.309685    74A     -0.303693    75A     -0.298067  
      76A     -0.289768    77A     -0.268164    78A     -0.259614  
      79A     -0.203234  

    Virtual:                                                              

      80A     -0.034151    81A      0.012316    82A      0.046109  
      83A      0.056170    84A      0.062434    85A      0.065723  
      86A      0.070069    87A      0.076827    88A      0.082678  
      89A      0.088023    90A      0.095445    91A      0.097545  
      92A      0.104035    93A      0.110600    94A      0.115155  
      95A      0.118230    96A      0.120506    97A      0.123955  
      98A      0.136038    99A      0.136798   100A      0.141444  
     101A      0.144163   102A      0.147752   103A      0.148722  
     104A      0.154955   105A      0.160184   106A      0.162431  
     107A      0.165091   108A      0.174989   109A      0.180493  
     110A      0.185542   111A      0.198039   112A      0.203040  
     113A      0.204880   114A      0.210098   115A      0.213298  
     116A      0.218021   117A      0.221676   118A      0.228246  
     119A      0.231377   120A      0.234005   121A      0.242942  
     122A      0.259282   123A      0.260612   124A      0.265310  
     125A      0.271574   126A      0.285160   127A      0.295201  
     128A      0.298971   129A      0.305429   130A      0.322202  
     131A      0.326441   132A      0.333480   133A      0.363961  
     134A      0.375109   135A      0.399374   136A      0.405589  
     137A      0.413948   138A      0.416413   139A      0.426269  
     140A      0.427113   141A      0.437815   142A      0.441095  
     143A      0.448869   144A      0.450600   145A      0.458555  
     146A      0.466734   147A      0.478181   148A      0.485515  
     149A      0.491831   150A      0.504682   151A      0.506361  
     152A      0.510451   153A      0.519096   154A      0.530866  
     155A      0.538526   156A      0.550906   157A      0.562773  
     158A      0.568417   159A      0.571734   160A      0.575961  
     161A      0.583933   162A      0.588462   163A      0.595339  
     164A      0.596206   165A      0.601843   166A      0.606535  
     167A      0.611649   168A      0.615762   169A      0.626773  
     170A      0.629699   171A      0.633243   172A      0.635106  
     173A      0.639973   174A      0.644088   175A      0.648182  
     176A      0.652529   177A      0.654293   178A      0.656136  
     179A      0.662794   180A      0.664363   181A      0.667882  
     182A      0.668736   183A      0.672632   184A      0.674769  
     185A      0.677372   186A      0.679956   187A      0.682864  
     188A      0.684590   189A      0.688780   190A      0.691849  
     191A      0.692943   192A      0.698567   193A      0.702497  
     194A      0.703468   195A      0.706255   196A      0.711773  
     197A      0.715664   198A      0.717437   199A      0.722041  
     200A      0.724015   201A      0.727791   202A      0.730666  
     203A      0.736844   204A      0.742803   205A      0.748714  
     206A      0.755706   207A      0.763381   208A      0.770038  
     209A      0.786331   210A      0.794281   211A      0.797336  
     212A      0.806415   213A      0.817480   214A      0.820709  
     215A      0.833182   216A      0.838199   217A      0.848204  
     218A      0.855477   219A      0.876792   220A      0.879062  
     221A      0.903823   222A      0.914556   223A      0.938006  
     224A      0.951330   225A      0.954919   226A      0.974678  
     227A      1.000337   228A      1.006785   229A      1.018908  
     230A      1.032758   231A      1.034340   232A      1.059123  
     233A      1.068276   234A      1.074344   235A      1.091240  
     236A      1.110784   237A      1.133811   238A      1.139072  
     239A      1.150385   240A      1.160529   241A      1.184284  
     242A      1.196679   243A      1.223090   244A      1.233432  
     245A      1.238219   246A      1.255369   247A      1.262738  
     248A      1.267947   249A      1.275981   250A      1.290181  
     251A      1.299318   252A      1.306507   253A      1.315366  
     254A      1.319006   255A      1.332252   256A      1.353707  
     257A      1.366216   258A      1.404259   259A      1.408723  
     260A      1.414272   261A      1.430540   262A      1.443959  
     263A      1.447037   264A      1.460529   265A      1.477969  
     266A      1.502281   267A      1.506524   268A      1.533848  
     269A      1.542117   270A      1.549023   271A      1.556204  
     272A      1.566093   273A      1.568239   274A      1.582442  
     275A      1.600459   276A      1.612202   277A      1.635540  
     278A      1.648708   279A      1.664487   280A      1.684192  
     281A      1.696233   282A      1.703720   283A      1.707586  
     284A      1.712324   285A      1.718663   286A      1.727495  
     287A      1.732194   288A      1.733997   289A      1.739378  
     290A      1.743650   291A      1.748100   292A      1.756534  
     293A      1.759441   294A      1.765070   295A      1.770388  
     296A      1.772892   297A      1.783325   298A      1.787779  
     299A      1.792292   300A      1.800881   301A      1.805557  
     302A      1.807556   303A      1.812812   304A      1.820874  
     305A      1.828401   306A      1.837584   307A      1.838134  
     308A      1.842440   309A      1.847010   310A      1.851414  
     311A      1.855419   312A      1.862106   313A      1.863605  
     314A      1.869644   315A      1.872845   316A      1.878927  
     317A      1.881844   318A      1.888546   319A      1.893306  
     320A      1.898589   321A      1.900890   322A      1.912081  
     323A      1.918863   324A      1.924241   325A      1.934368  
     326A      1.937006   327A      1.943296   328A      1.948843  
     329A      1.958438   330A      1.968687   331A      1.974469  
     332A      1.986541   333A      1.994045   334A      1.997730  
     335A      2.004946   336A      2.012057   337A      2.021022  
     338A      2.034934   339A      2.035399   340A      2.039579  
     341A      2.047124   342A      2.057134   343A      2.058798  
     344A      2.074328   345A      2.081369   346A      2.092817  
     347A      2.110986   348A      2.118227   349A      2.125746  
     350A      2.146347   351A      2.150591   352A      2.168761  
     353A      2.171738   354A      2.184666   355A      2.197292  
     356A      2.207828   357A      2.215498   358A      2.217032  
     359A      2.227279   360A      2.238035   361A      2.245299  
     362A      2.263743   363A      2.273827   364A      2.284979  
     365A      2.298236   366A      2.312541   367A      2.315647  
     368A      2.332843   369A      2.342024   370A      2.345459  
     371A      2.358893   372A      2.361667   373A      2.374135  
     374A      2.391459   375A      2.401668   376A      2.403095  
     377A      2.414797   378A      2.427378   379A      2.439870  
     380A      2.451192   381A      2.473475   382A      2.484619  
     383A      2.489463   384A      2.494454   385A      2.529036  
     386A      2.541268   387A      2.548491   388A      2.555032  
     389A      2.558090   390A      2.566485   391A      2.587150  
     392A      2.590584   393A      2.592643   394A      2.611525  
     395A      2.619510   396A      2.631422   397A      2.646707  
     398A      2.651560   399A      2.670630   400A      2.680639  
     401A      2.690526   402A      2.700779   403A      2.724690  
     404A      2.739794   405A      2.752685   406A      2.780929  
     407A      2.800988   408A      2.824965   409A      2.835484  
     410A      2.842577   411A      2.857769   412A      2.859830  
     413A      2.868755   414A      2.874085   415A      2.889839  
     416A      2.898999   417A      2.907282   418A      2.933846  
     419A      2.938627   420A      2.953171   421A      2.954955  
     422A      2.966087   423A      2.980520   424A      2.983624  
     425A      2.990230   426A      2.995125   427A      3.005192  
     428A      3.013074   429A      3.031740   430A      3.039631  
     431A      3.043916   432A      3.062534   433A      3.068690  
     434A      3.091533   435A      3.103565   436A      3.103868  
     437A      3.113117   438A      3.132724   439A      3.168830  
     440A      3.210566   441A      3.329627   442A      3.369624  
     443A      3.394249   444A      3.771172  

    Final Occupation by Irrep:
              A 
    DOCC [    79 ]
    NA   [    79 ]
    NB   [    79 ]

  @DF-RKS Final Energy:  -854.87820979262142

   => Energetics <=

    Nuclear Repulsion Energy =           1707.3701308818062898
    One-Electron Energy =               -4547.6682105488507659
    Two-Electron Energy =                2089.3605875634848417
    DFT Exchange-Correlation Energy =    -103.8335284154255191
    Empirical Dispersion Energy =          -0.1071892736360713
    VV10 Nonlocal Energy =                  0.0000000000000000
    Total Energy =                       -854.8782097926211918

Computation Completed


Properties will be evaluated at   0.000000,   0.000000,   0.000000 [a0]

Properties computed using the SCF density matrix


 Multipole Moments:

 ------------------------------------------------------------------------------------
     Multipole            Electronic (a.u.)      Nuclear  (a.u.)        Total (a.u.)
 ------------------------------------------------------------------------------------

 L = 1.  Multiply by 2.5417464519 to convert [e a0] to [Debye]
 Dipole X            :         87.9725028          -87.6753309            0.2971719
 Dipole Y            :        -14.7279120           14.4621912           -0.2657207
 Dipole Z            :         15.1344972          -15.4785645           -0.3440673
 Magnitude           :                                                    0.5265937

 ------------------------------------------------------------------------------------

*** tstop() called on choehoyun-ui-MacBookAir.local at Mon Aug 10 20:19:04 2026
Module time:
	user time   =     563.96 seconds =       9.40 minutes
	system time =      10.58 seconds =       0.18 minutes
	total time  =        104 seconds =       1.73 minutes
Total time:
	user time   =     563.96 seconds =       9.40 minutes
	system time =      10.58 seconds =       0.18 minutes
	total time  =        104 seconds =       1.73 minutes

    Psi4 stopped on: Monday, 10 August 2026 08:19PM
    Psi4 wall time for execution: 0:01:44.24

*** Psi4 exiting successfully. Buy a developer a beer!
