
    -----------------------------------------------------------------------
          Psi4: An Open-Source Ab Initio Electronic Structure Package
                               Psi4 1.11 release

                         Git: Rev {} zzzzzzz 


    D. G. A. Smith, L. A. Burns, A. C. Simmonett, R. M. Parrish,
    M. C. Schieber, R. Galvelis, P. Kraus, H. Kruse, R. Di Remigio,
    A. Alenaizan, A. M. James, S. Lehtola, J. P. Misiewicz, M. Scheurer,
    R. A. Shaw, J. B. Schriber, Y. Xie, Z. L. Glick, D. A. Sirianni,
    J. S. O'Brien, J. M. Waldrop, A. Kumar, E. G. Hohenstein,
    B. P. Pritchard, B. R. Brooks, H. F. Schaefer III, A. Yu. Sokolov,
    K. Patkowski, A. E. DePrince III, U. Bozkaya, R. A. King,
    F. A. Evangelista, J. M. Turney, T. D. Crawford, C. D. Sherrill,
    J. Chem. Phys. 152(18) 184108 (2020). https://doi.org/10.1063/5.0006002

                            Additional Code Authors
    E. T. Seidl, C. L. Janssen, E. F. Valeev, M. L. Leininger,
    J. F. Gonthier, R. M. Richard, H. R. McAlexander, M. Saitow, X. Wang,
    P. Verma, M. H. Lechner, A. Jiang, S. Behnle, A. G. Heide,
    M. F. Herbst, D. L. Poole, T. Győri, E. C. Mitchell, J. P. Pederson,
    and A. M. Wallace

             Previous Authors, Complete List of Code Contributors,
                       and Citations for Specific Modules
    https://github.com/psi4/psi4/blob/master/codemeta.json
    https://github.com/psi4/psi4/graphs/contributors
    https://psicode.org/psi4manual/master/introduction.html#citing-psifour

    -----------------------------------------------------------------------


    Psi4 started on: Sunday, 09 August 2026 12:38PM

    Process ID: 58046
    Host:       choehoyun-ui-MacBookAir.local
    PSIDATADIR: /Users/hoyoun/micromamba/envs/psi4env/share/psi4
    Memory:     500.0 MiB
    Threads:    8
    Addons:     a̶d̶c̶c̶, a̶m̶b̶i̶t̶, b̶s̶e̶, c̶c̶t̶3̶, c̶f̶o̶u̶r̶, c̶h̶e̶m̶p̶s̶2̶, c̶p̶p̶e̶, d̶d̶x̶, dftd3,
                d̶f̶t̶d̶4̶, dkh, ecpint, einsums, f̶o̶r̶t̶e̶, gauxc, g̶c̶p̶, g̶d̶m̶a̶,
                g̶e̶o̶m̶e̶t̶r̶i̶c̶, g̶p̶u̶_̶d̶f̶c̶c̶, i̶n̶t̶e̶g̶r̶a̶t̶o̶r̶x̶x̶, i̶p̶i̶,
                l̶i̶b̶e̶f̶p̶, m̶d̶i̶, m̶p̶2̶d̶, m̶r̶c̶c̶, ooo, o̶p̶e̶n̶f̶e̶r̶m̶i̶o̶n̶p̶s̶i̶4̶,
                pcmsolver, p̶s̶i̶4̶f̶o̶c̶k̶c̶i̶, p̶s̶i̶x̶a̶s̶, p̶y̶e̶i̶n̶s̶u̶m̶s̶, r̶e̶s̶p̶,
                s̶i̶m̶i̶n̶t̶, s̶n̶s̶m̶p̶2̶, v̶2̶r̶d̶m̶_̶c̶a̶s̶s̶c̶f̶

  ==> Input File <==

--------------------------------------------------------------------------
memory 3 GB
molecule mol {
0 1
C -4.15324401361673 -1.68877853174362 0.63418251162121
C -5.42960769849829 -0.82312397766575 0.68859818943237
C -5.07851213337411 0.66823653487514 0.75162476625613
C -4.20386421003052 1.05688249224150 -0.45772183853321
C -2.96547415726081 0.18791909266387 -0.57371162130418
C -3.22740198301532 -1.26841503966048 -0.49466846693724
C 1.03567896134302 2.06320083937066 -1.19680056302252
C 0.75601259764466 0.60199751838335 -0.90783303064397
C -0.46608625968667 0.05383978883753 -0.71155144052748
C -1.73349283876991 0.74983433188971 -0.68963197248873
C 2.05596420549859 2.67934138400982 -0.20345472103853
C 2.03108504124146 -0.19051094758378 -0.83577145319697
C 3.33292419505530 1.82396945482347 -0.07409301385842
C 2.99327638129590 0.36512902142313 0.26369697128234
C 2.03072016748211 -1.70772586269008 -0.58977808539815
C 4.17225359382578 -0.62837228287744 0.11733207694140
C 2.35611927651131 0.26821502725584 1.66409605756259
C 3.47425160522151 -2.00874924951961 -0.07632563942247
C -2.72567454440402 -2.15745999733726 -1.36690886966430
O -6.24804744868177 1.49675616522673 0.84511336413115
C 5.21318082926800 -0.61027582347430 1.23738071908979
H -4.41102526276914 -2.75078007925992 0.53678692492285
H -3.61646945750370 -1.56535019821329 1.58880525763212
H -6.03231390021123 -1.00141635240058 -0.21668938005045
H -6.04177613392583 -1.09262098243540 1.55845448159382
H -4.52019187961652 0.86961459677354 1.67544134607546
H -4.82936939084007 0.92435833044655 -1.35944925877247
H -3.93215874084704 2.11724172869094 -0.39094704773411
H 0.12085864874026 2.66464992276384 -1.20666034925328
H 1.47106898942073 2.12740373135189 -2.20864897038394
H -0.51442218622319 -1.01988485657349 -0.54244607170247
H -1.70601267537203 1.83937873201651 -0.73197127823519
H 2.31598855128480 3.69299974618611 -0.53714970594372
H 1.58038911388581 2.77848677783556 0.78117707387820
H 2.56538692800749 -0.01282094934677 -1.78713757630239
H 3.87815130642546 1.83869089073886 -1.03125010027242
H 3.99752099544439 2.25281462260235 0.68974556382395
H 1.77475354112639 -2.26979532190949 -1.49536349524217
H 1.29213497093656 -1.96808360304769 0.17752155046342
H 4.67677484438581 -0.36506067969884 -0.82542474609320
H 1.37937670310690 0.76208654773614 1.68647148079510
H 2.20777021226640 -0.77638124155738 1.96138629132233
H 3.00637639449304 0.74427708806524 2.40865681303007
H 4.03802908809665 -2.63697266602858 -0.77631832280016
H 3.43816514865677 -2.54693728506251 0.87995953774873
H -2.95735748290563 -3.21880441332709 -1.27982666361794
H -2.08213344905805 -1.84403486541428 -2.18600501806679
H -6.76151174476631 1.35173884768540 0.03671267588634
H 4.76303039772029 -0.90798477176423 2.19320229575818
H 6.03092948529792 -1.31011296584661 1.01802117906238
H 5.64797541769365 0.39138973054493 1.35917157219686
units angstrom
no_reorient
no_com
}
set basis def2-TZVP
set scf_type disk_df
set freeze_core true
set e_convergence 8
energy('b3lyp-d3bj')
--------------------------------------------------------------------------

  Memory set to   2.794 GiB by Python driver.

Scratch directory: /Users/hoyoun/Documents/Yonsei_AX_Camp/(진짜_이게_최종)/calibration/dft_work/_scratch/i7p/
   => Libint2 <=

    Primary   basis highest AM E, G, H:  7, 6, 3
    Auxiliary basis highest AM E, G, H:  7, 7, 4
    Onebody   basis highest AM E, G, H:  -, -, -
    Solid Harmonics ordering:            Gaussian

*** tstart() called on choehoyun-ui-MacBookAir.local
*** at Sun Aug  9 12:38:38 2026

   => Loading Basis Set <=

    Name: DEF2-TZVP
    Role: ORBITAL
    Keyword: BASIS
    atoms 1-19, 21 entry C          line   123 file /Users/hoyoun/micromamba/envs/psi4env/share/psi4/basis/def2-tzvp.gbs 
    atoms 20       entry O          line   189 file /Users/hoyoun/micromamba/envs/psi4env/share/psi4/basis/def2-tzvp.gbs 
    atoms 22-51    entry H          line    15 file /Users/hoyoun/micromamba/envs/psi4env/share/psi4/basis/def2-tzvp.gbs 

   => B3LYP-D3(BJ): Empirical Dispersion <=

    Grimme's -D3 (BJ-damping) Dispersion Correction
    Grimme S.; Ehrlich S.; Goerigk L. (2011), J. Comput. Chem., 32: 1456

        s6 =       1.000000
        s8 =       1.988900
        a1 =       0.398100
        a2 =       4.421100


         ---------------------------------------------------------
                                   SCF
               by Justin Turney, Rob Parrish, Andy Simmonett
                          and Daniel G. A. Smith
                              RKS Reference
                        8 Threads,   2861 MiB Core
         ---------------------------------------------------------

  ==> Geometry <==

    Molecular point group: c1
    Full point group: C1

    Geometry (in Angstrom), charge = 0, multiplicity = 1:

       Center              X                  Y                   Z               Mass       
    ------------   -----------------  -----------------  -----------------  -----------------
         C           -4.153244013617    -1.688778531744     0.634182511621    12.000000000000
         C           -5.429607698498    -0.823123977666     0.688598189432    12.000000000000
         C           -5.078512133374     0.668236534875     0.751624766256    12.000000000000
         C           -4.203864210031     1.056882492242    -0.457721838533    12.000000000000
         C           -2.965474157261     0.187919092664    -0.573711621304    12.000000000000
         C           -3.227401983015    -1.268415039660    -0.494668466937    12.000000000000
         C            1.035678961343     2.063200839371    -1.196800563023    12.000000000000
         C            0.756012597645     0.601997518383    -0.907833030644    12.000000000000
         C           -0.466086259687     0.053839788838    -0.711551440527    12.000000000000
         C           -1.733492838770     0.749834331890    -0.689631972489    12.000000000000
         C            2.055964205499     2.679341384010    -0.203454721039    12.000000000000
         C            2.031085041241    -0.190510947584    -0.835771453197    12.000000000000
         C            3.332924195055     1.823969454823    -0.074093013858    12.000000000000
         C            2.993276381296     0.365129021423     0.263696971282    12.000000000000
         C            2.030720167482    -1.707725862690    -0.589778085398    12.000000000000
         C            4.172253593826    -0.628372282877     0.117332076941    12.000000000000
         C            2.356119276511     0.268215027256     1.664096057563    12.000000000000
         C            3.474251605222    -2.008749249520    -0.076325639422    12.000000000000
         C           -2.725674544404    -2.157459997337    -1.366908869664    12.000000000000
         O           -6.248047448682     1.496756165227     0.845113364131    15.994914619570
         C            5.213180829268    -0.610275823474     1.237380719090    12.000000000000
         H           -4.411025262769    -2.750780079260     0.536786924923     1.007825032230
         H           -3.616469457504    -1.565350198213     1.588805257632     1.007825032230
         H           -6.032313900211    -1.001416352401    -0.216689380050     1.007825032230
         H           -6.041776133926    -1.092620982435     1.558454481594     1.007825032230
         H           -4.520191879617     0.869614596774     1.675441346075     1.007825032230
         H           -4.829369390840     0.924358330447    -1.359449258772     1.007825032230
         H           -3.932158740847     2.117241728691    -0.390947047734     1.007825032230
         H            0.120858648740     2.664649922764    -1.206660349253     1.007825032230
         H            1.471068989421     2.127403731352    -2.208648970384     1.007825032230
         H           -0.514422186223    -1.019884856573    -0.542446071702     1.007825032230
         H           -1.706012675372     1.839378732017    -0.731971278235     1.007825032230
         H            2.315988551285     3.692999746186    -0.537149705944     1.007825032230
         H            1.580389113886     2.778486777836     0.781177073878     1.007825032230
         H            2.565386928007    -0.012820949347    -1.787137576302     1.007825032230
         H            3.878151306425     1.838690890739    -1.031250100272     1.007825032230
         H            3.997520995444     2.252814622602     0.689745563824     1.007825032230
         H            1.774753541126    -2.269795321909    -1.495363495242     1.007825032230
         H            1.292134970937    -1.968083603048     0.177521550463     1.007825032230
         H            4.676774844386    -0.365060679699    -0.825424746093     1.007825032230
         H            1.379376703107     0.762086547736     1.686471480795     1.007825032230
         H            2.207770212266    -0.776381241557     1.961386291322     1.007825032230
         H            3.006376394493     0.744277088065     2.408656813030     1.007825032230
         H            4.038029088097    -2.636972666029    -0.776318322800     1.007825032230
         H            3.438165148657    -2.546937285063     0.879959537749     1.007825032230
         H           -2.957357482906    -3.218804413327    -1.279826663618     1.007825032230
         H           -2.082133449058    -1.844034865414    -2.186005018067     1.007825032230
         H           -6.761511744766     1.351738847685     0.036712675886     1.007825032230
         H            4.763030397720    -0.907984771764     2.193202295758     1.007825032230
         H            6.030929485298    -1.310112965847     1.018021179062     1.007825032230
         H            5.647975417694     0.391389730545     1.359171572197     1.007825032230

  Running in c1 symmetry.

  Rotational constants: A =      0.02152  B =      0.00434  C =      0.00399 [cm^-1]
  Rotational constants: A =    645.12556  B =    130.23465  C =    119.61461 [MHz]
  Nuclear repulsion = 1707.370130881806290

  Charge       = 0
  Multiplicity = 1
  Electrons    = 158
  Nalpha       = 79
  Nbeta        = 79

  ==> Algorithm <==

  SCF Algorithm Type is DISK_DF.
  DIIS enabled.
  MOM disabled.
  Fractional occupation disabled.
  Guess Type is SAD.
  Energy threshold   = 1.00e-08
  Density threshold  = 1.00e-06
  Integral threshold = 1.00e-12

  ==> Primary Basis <==

  Basis Set: DEF2-TZVP
    Blend: DEF2-TZVP
    Number of shells: 351
    Number of basis functions: 831
    Number of Cartesian functions: 936
    Spherical Harmonics?: true
    Max angular momentum: 3

  ==> DFT Potential <==

   => LibXC <=

    Version 7.1.2
    S. Lehtola, C. Steigemann, M. J. T. Oliveira, and M. A. L. Marques,  SoftwareX 7, 1–5 (2018) (10.1016/j.softx.2017.11.002)

   => Composite Functional: B3LYP-D3BJ2B <= 

    B3LYP-d3bj2b Hyb-GGA Exchange-Correlation Functional

    P. J. Stephens, F. J. Devlin, C. F. Chabalowski, and M. J. Frisch,  J. Phys. Chem. 98, 11623 (1994) (10.1021/j100096a001)

    Deriv               =              1
    GGA                 =           TRUE
    Meta                =          FALSE

    Exchange Hybrid     =           TRUE
    MP2 Hybrid          =          FALSE

   => Exchange Functionals <=

    0.0800   Slater exchange
    0.7200         Becke 88

   => Exact (HF) Exchange <=

    0.2000               HF 

   => Correlation Functionals <=

    0.1900   Vosko, Wilk & Nusair (VWN5_RPA)
    0.8100   Lee, Yang & Parr

   => LibXC Density Thresholds  <==

    XC_HYB_GGA_XC_B3LYP:  1.00E-15 

   => Molecular Quadrature <=

    Radial Scheme          =       TREUTLER
    Pruning Scheme         =           NONE
    Nuclear Scheme         =       TREUTLER

    Blocking Scheme        =         OCTREE
    BS radius alpha        =              1
    Pruning alpha          =              1
    Radial Points          =             75
    Spherical Points       =            302
    Total Points           =        1041391
    Total Blocks           =           7218
    Max Points             =            256
    Max Functions          =            572
    Weights Tolerance      =       1.00E-15

   => Loading Basis Set <=

    Name: (DEF2-TZVP AUX)
    Role: JKFIT
    Keyword: DF_BASIS_SCF
    atoms 1-19, 21 entry C          line   198 file /Users/hoyoun/micromamba/envs/psi4env/share/psi4/basis/def2-universal-jkfit.gbs 
    atoms 20       entry O          line   318 file /Users/hoyoun/micromamba/envs/psi4env/share/psi4/basis/def2-universal-jkfit.gbs 
    atoms 22-51    entry H          line    18 file /Users/hoyoun/micromamba/envs/psi4env/share/psi4/basis/def2-universal-jkfit.gbs 

  ==> Integral Setup <==

  ==> DiskDFJK: Density-Fitted J/K Matrices <==

    J tasked:                  Yes
    K tasked:                  Yes
    wK tasked:                  No
    OpenMP threads:              8
    Integrals threads:           8
    Memory [MiB]:             1931
    Algorithm:                Disk
    Integral Cache:           NONE
    Schwarz Cutoff:          1E-12
    Fitting Condition:       1E-10

   => Auxiliary Basis Set <=

  Basis Set: (DEF2-TZVP AUX)
    Blend: DEF2-UNIVERSAL-JKFIT
    Number of shells: 705
    Number of basis functions: 2117
    Number of Cartesian functions: 2473
    Spherical Harmonics?: true
    Max angular momentum: 4

  Cached 1.9% of DFT collocation blocks in 0.209 [GiB].

  Minimum eigenvalue in the overlap matrix is 1.5662719584E-05.
  Reciprocal condition number of the overlap matrix is 1.2207000709E-06.
    Using symmetric orthogonalization.

  ==> Pre-Iterations <==

  SCF Guess: Superposition of Atomic Densities via on-the-fly atomic UHF (no occupation information).

   -------------------------
    Irrep   Nso     Nmo    
   -------------------------
     A        831     831 
   -------------------------
    Total     831     831
   -------------------------

  ==> Iterations <==

                           Total Energy        Delta E     RMS |[F,P]|

   @DF-RKS iter SAD:  -855.07836260648207   -8.55078e+02   0.00000e+00 
   @DF-RKS iter   1:  -853.74145387569945    1.33691e+00   2.39438e-03 ADIIS/DIIS
   @DF-RKS iter   2:  -851.32065689444266    2.42080e+00   3.49306e-03 ADIIS/DIIS
   @DF-RKS iter   3:  -855.67508809775131   -4.35443e+00   6.24724e-04 ADIIS/DIIS
   @DF-RKS iter   4:  -855.76838867314325   -9.33006e-02   3.38887e-04 ADIIS/DIIS
   @DF-RKS iter   5:  -855.80366183205490   -3.52732e-02   1.06601e-04 ADIIS/DIIS
   @DF-RKS iter   6:  -855.80716809813555   -3.50627e-03   3.54948e-05 DIIS
   @DF-RKS iter   7:  -855.80755531579143   -3.87218e-04   1.11388e-05 DIIS
   @DF-RKS iter   8:  -855.80759044698425   -3.51312e-05   5.34609e-06 DIIS
   @DF-RKS iter   9:  -855.80760022905247   -9.78207e-06   9.40231e-07 DIIS
   @DF-RKS iter  10:  -855.80760051089214   -2.81840e-07   3.23465e-07 DIIS
   @DF-RKS iter  11:  -855.80760054142411   -3.05320e-08   1.12656e-07 DIIS
   @DF-RKS iter  12:  -855.80760054572693   -4.30282e-09   3.35088e-08 DIIS
  Energy and wave function converged.


  ==> Post-Iterations <==

   Electrons on quadrature grid:
      Ntotal   =  157.9996957038 ; deviation = -3.043e-04 

    Orbital Energies [Eh]
    ---------------------

    Doubly Occupied:                                                      

       1A    -19.125435     2A    -10.224108     3A    -10.185835  
       4A    -10.182039     5A    -10.179260     6A    -10.177006  
       7A    -10.176604     8A    -10.174782     9A    -10.173978  
      10A    -10.172274    11A    -10.172223    12A    -10.170600  
      13A    -10.170338    14A    -10.170259    15A    -10.165753  
      16A    -10.164615    17A    -10.164375    18A    -10.164094  
      19A    -10.161963    20A    -10.159383    21A    -10.155595  
      22A     -1.019827    23A     -0.866240    24A     -0.848398  
      25A     -0.809702    26A     -0.786118    27A     -0.766892  
      28A     -0.763464    29A     -0.737379    30A     -0.729472  
      31A     -0.702418    32A     -0.680648    33A     -0.669547  
      34A     -0.645191    35A     -0.640472    36A     -0.598455  
      37A     -0.596502    38A     -0.587348    39A     -0.574223  
      40A     -0.530819    41A     -0.519258    42A     -0.508303  
      43A     -0.494821    44A     -0.484768    45A     -0.474664  
      46A     -0.458816    47A     -0.457558    48A     -0.456914  
      49A     -0.444293    50A     -0.438907    51A     -0.434919  
      52A     -0.430045    53A     -0.421832    54A     -0.415781  
      55A     -0.412269    56A     -0.402748    57A     -0.395488  
      58A     -0.389524    59A     -0.386671    60A     -0.382112  
      61A     -0.374808    62A     -0.372732    63A     -0.364526  
      64A     -0.360985    65A     -0.354462    66A     -0.347049  
      67A     -0.335718    68A     -0.329786    69A     -0.328604  
      70A     -0.325726    71A     -0.319685    72A     -0.317248  
      73A     -0.311288    74A     -0.305561    75A     -0.300075  
      76A     -0.291320    77A     -0.275823    78A     -0.262624  
      79A     -0.205912  

    Virtual:                                                              

      80A     -0.038853    81A      0.002600    82A      0.025021  
      83A      0.033179    84A      0.038587    85A      0.042537  
      86A      0.047078    87A      0.053237    88A      0.060053  
      89A      0.066282    90A      0.071307    91A      0.073747  
      92A      0.076936    93A      0.082700    94A      0.085075  
      95A      0.088478    96A      0.094769    97A      0.100176  
      98A      0.105003    99A      0.110477   100A      0.112331  
     101A      0.114930   102A      0.118550   103A      0.124307  
     104A      0.125016   105A      0.126917   106A      0.135531  
     107A      0.136840   108A      0.138877   109A      0.147181  
     110A      0.148078   111A      0.153857   112A      0.157591  
     113A      0.159297   114A      0.166111   115A      0.169300  
     116A      0.175146   117A      0.177865   118A      0.183598  
     119A      0.187423   120A      0.190057   121A      0.194476  
     122A      0.198450   123A      0.202673   124A      0.209786  
     125A      0.212146   126A      0.216148   127A      0.217684  
     128A      0.222138   129A      0.224795   130A      0.226894  
     131A      0.237320   132A      0.238655   133A      0.241804  
     134A      0.251873   135A      0.254121   136A      0.260435  
     137A      0.262058   138A      0.267713   139A      0.274556  
     140A      0.276995   141A      0.282177   142A      0.284853  
     143A      0.301008   144A      0.303619   145A      0.308105  
     146A      0.310202   147A      0.311787   148A      0.317795  
     149A      0.321933   150A      0.325015   151A      0.329501  
     152A      0.336147   153A      0.342109   154A      0.348854  
     155A      0.356821   156A      0.357204   157A      0.359951  
     158A      0.365560   159A      0.375590   160A      0.377645  
     161A      0.381760   162A      0.384836   163A      0.391628  
     164A      0.393253   165A      0.398072   166A      0.400579  
     167A      0.401007   168A      0.401671   169A      0.407775  
     170A      0.411175   171A      0.413735   172A      0.415927  
     173A      0.419399   174A      0.422107   175A      0.424219  
     176A      0.426077   177A      0.427000   178A      0.429001  
     179A      0.433339   180A      0.433992   181A      0.438519  
     182A      0.441340   183A      0.443325   184A      0.450585  
     185A      0.451304   186A      0.453308   187A      0.455552  
     188A      0.459112   189A      0.466935   190A      0.467141  
     191A      0.471308   192A      0.474354   193A      0.479097  
     194A      0.485125   195A      0.485683   196A      0.488589  
     197A      0.492324   198A      0.496147   199A      0.497761  
     200A      0.499645   201A      0.505425   202A      0.508137  
     203A      0.511103   204A      0.514258   205A      0.521469  
     206A      0.523526   207A      0.529701   208A      0.534810  
     209A      0.536679   210A      0.548051   211A      0.549666  
     212A      0.555763   213A      0.557458   214A      0.562710  
     215A      0.571165   216A      0.577783   217A      0.584141  
     218A      0.590534   219A      0.599222   220A      0.607443  
     221A      0.612332   222A      0.616011   223A      0.622094  
     224A      0.624015   225A      0.629847   226A      0.639246  
     227A      0.647317   228A      0.650340   229A      0.655285  
     230A      0.671819   231A      0.675563   232A      0.687149  
     233A      0.689506   234A      0.697838   235A      0.712081  
     236A      0.715866   237A      0.718377   238A      0.722015  
     239A      0.733195   240A      0.744541   241A      0.748658  
     242A      0.754995   243A      0.758475   244A      0.778334  
     245A      0.779721   246A      0.783647   247A      0.795713  
     248A      0.804672   249A      0.811925   250A      0.824294  
     251A      0.825867   252A      0.834007   253A      0.836459  
     254A      0.845369   255A      0.852819   256A      0.863327  
     257A      0.867631   258A      0.870947   259A      0.884008  
     260A      0.885585   261A      0.888087   262A      0.893764  
     263A      0.899028   264A      0.905320   265A      0.918731  
     266A      0.923261   267A      0.933874   268A      0.938777  
     269A      0.942095   270A      0.944965   271A      0.956239  
     272A      0.965438   273A      0.969754   274A      0.972716  
     275A      0.979695   276A      0.981745   277A      0.982678  
     278A      0.988951   279A      1.000193   280A      1.010853  
     281A      1.022790   282A      1.028425   283A      1.028682  
     284A      1.041685   285A      1.045223   286A      1.047997  
     287A      1.059614   288A      1.062270   289A      1.071949  
     290A      1.081687   291A      1.091490   292A      1.095124  
     293A      1.100865   294A      1.111219   295A      1.114228  
     296A      1.123027   297A      1.125212   298A      1.137265  
     299A      1.145169   300A      1.150704   301A      1.157578  
     302A      1.164590   303A      1.166891   304A      1.182167  
     305A      1.186764   306A      1.194899   307A      1.197412  
     308A      1.205557   309A      1.210005   310A      1.220688  
     311A      1.224319   312A      1.226872   313A      1.237384  
     314A      1.244393   315A      1.245480   316A      1.249759  
     317A      1.267054   318A      1.273325   319A      1.279131  
     320A      1.285253   321A      1.289985   322A      1.293578  
     323A      1.302972   324A      1.314236   325A      1.315387  
     326A      1.327460   327A      1.331420   328A      1.334667  
     329A      1.337794   330A      1.353328   331A      1.356665  
     332A      1.366718   333A      1.377599   334A      1.385056  
     335A      1.397189   336A      1.407288   337A      1.418418  
     338A      1.421767   339A      1.429949   340A      1.441365  
     341A      1.443700   342A      1.461179   343A      1.469066  
     344A      1.475020   345A      1.487132   346A      1.488889  
     347A      1.501432   348A      1.512282   349A      1.522497  
     350A      1.526666   351A      1.540997   352A      1.546472  
     353A      1.551934   354A      1.557775   355A      1.560504  
     356A      1.562266   357A      1.568558   358A      1.575624  
     359A      1.579207   360A      1.586696   361A      1.591784  
     362A      1.602401   363A      1.606401   364A      1.610188  
     365A      1.612794   366A      1.614771   367A      1.624171  
     368A      1.632763   369A      1.636066   370A      1.641979  
     371A      1.648383   372A      1.652253   373A      1.659906  
     374A      1.662874   375A      1.671328   376A      1.674474  
     377A      1.680775   378A      1.688426   379A      1.691790  
     380A      1.704553   381A      1.706443   382A      1.713856  
     383A      1.720219   384A      1.726015   385A      1.729291  
     386A      1.743341   387A      1.749715   388A      1.762666  
     389A      1.769337   390A      1.774452   391A      1.781182  
     392A      1.785482   393A      1.800918   394A      1.807201  
     395A      1.812529   396A      1.823460   397A      1.831689  
     398A      1.844301   399A      1.857622   400A      1.864004  
     401A      1.868402   402A      1.880033   403A      1.884284  
     404A      1.891140   405A      1.905651   406A      1.909851  
     407A      1.911859   408A      1.918524   409A      1.929095  
     410A      1.938664   411A      1.942721   412A      1.947576  
     413A      1.955721   414A      1.966787   415A      1.970181  
     416A      1.974882   417A      1.988024   418A      1.997082  
     419A      2.000106   420A      2.008997   421A      2.010845  
     422A      2.027930   423A      2.031472   424A      2.038915  
     425A      2.044376   426A      2.061898   427A      2.065768  
     428A      2.067105   429A      2.073595   430A      2.080873  
     431A      2.091085   432A      2.101041   433A      2.108826  
     434A      2.113143   435A      2.130148   436A      2.136307  
     437A      2.140369   438A      2.150048   439A      2.158741  
     440A      2.176506   441A      2.187602   442A      2.192639  
     443A      2.202911   444A      2.210451   445A      2.213156  
     446A      2.224061   447A      2.230317   448A      2.232196  
     449A      2.242642   450A      2.256805   451A      2.261078  
     452A      2.267656   453A      2.272966   454A      2.281890  
     455A      2.292229   456A      2.293965   457A      2.305777  
     458A      2.308480   459A      2.324057   460A      2.329088  
     461A      2.344077   462A      2.350777   463A      2.362727  
     464A      2.373649   465A      2.376541   466A      2.379358  
     467A      2.383492   468A      2.399751   469A      2.403395  
     470A      2.417502   471A      2.424951   472A      2.427605  
     473A      2.435308   474A      2.441388   475A      2.446568  
     476A      2.453366   477A      2.459415   478A      2.467354  
     479A      2.469875   480A      2.479234   481A      2.497165  
     482A      2.501952   483A      2.507261   484A      2.509585  
     485A      2.517639   486A      2.524289   487A      2.527629  
     488A      2.533250   489A      2.543035   490A      2.552167  
     491A      2.555578   492A      2.560483   493A      2.565277  
     494A      2.572589   495A      2.577619   496A      2.587721  
     497A      2.590226   498A      2.594150   499A      2.598414  
     500A      2.602084   501A      2.607777   502A      2.609648  
     503A      2.619254   504A      2.622394   505A      2.628012  
     506A      2.635137   507A      2.640127   508A      2.648019  
     509A      2.654845   510A      2.656174   511A      2.665010  
     512A      2.673213   513A      2.678084   514A      2.682689  
     515A      2.686427   516A      2.693272   517A      2.702504  
     518A      2.704350   519A      2.714888   520A      2.717156  
     521A      2.723125   522A      2.725034   523A      2.734332  
     524A      2.741022   525A      2.742417   526A      2.747776  
     527A      2.755367   528A      2.762394   529A      2.770703  
     530A      2.777258   531A      2.780963   532A      2.783810  
     533A      2.790263   534A      2.798506   535A      2.812449  
     536A      2.817941   537A      2.821200   538A      2.835090  
     539A      2.836277   540A      2.841166   541A      2.849913  
     542A      2.851925   543A      2.863802   544A      2.865332  
     545A      2.885201   546A      2.889777   547A      2.895648  
     548A      2.904960   549A      2.908848   550A      2.918365  
     551A      2.928162   552A      2.931899   553A      2.944175  
     554A      2.951637   555A      2.953948   556A      2.959200  
     557A      2.970604   558A      2.985944   559A      2.990609  
     560A      2.993648   561A      3.014182   562A      3.015764  
     563A      3.029043   564A      3.032072   565A      3.035123  
     566A      3.049823   567A      3.053003   568A      3.056493  
     569A      3.067808   570A      3.071969   571A      3.083782  
     572A      3.093666   573A      3.102085   574A      3.109765  
     575A      3.119562   576A      3.121744   577A      3.125811  
     578A      3.135415   579A      3.140869   580A      3.146032  
     581A      3.155740   582A      3.160448   583A      3.163803  
     584A      3.169613   585A      3.173260   586A      3.182491  
     587A      3.189374   588A      3.191918   589A      3.205455  
     590A      3.206209   591A      3.215832   592A      3.220278  
     593A      3.228039   594A      3.235911   595A      3.241566  
     596A      3.247502   597A      3.249878   598A      3.256249  
     599A      3.263163   600A      3.264799   601A      3.264829  
     602A      3.274713   603A      3.280833   604A      3.285983  
     605A      3.293841   606A      3.297470   607A      3.302955  
     608A      3.306974   609A      3.316026   610A      3.327934  
     611A      3.332689   612A      3.334462   613A      3.344014  
     614A      3.347400   615A      3.352421   616A      3.361969  
     617A      3.368187   618A      3.373167   619A      3.374808  
     620A      3.383498   621A      3.388889   622A      3.394725  
     623A      3.403321   624A      3.409862   625A      3.413203  
     626A      3.420828   627A      3.425917   628A      3.433362  
     629A      3.435079   630A      3.437933   631A      3.444686  
     632A      3.460090   633A      3.465739   634A      3.471073  
     635A      3.475412   636A      3.486751   637A      3.495501  
     638A      3.500002   639A      3.505472   640A      3.507218  
     641A      3.510496   642A      3.519065   643A      3.526225  
     644A      3.527197   645A      3.532933   646A      3.543854  
     647A      3.550301   648A      3.556753   649A      3.558742  
     650A      3.564277   651A      3.576554   652A      3.582861  
     653A      3.587248   654A      3.596466   655A      3.601692  
     656A      3.609542   657A      3.621507   658A      3.624821  
     659A      3.633035   660A      3.639139   661A      3.641825  
     662A      3.652359   663A      3.669027   664A      3.677983  
     665A      3.682871   666A      3.690841   667A      3.697464  
     668A      3.705737   669A      3.713087   670A      3.719845  
     671A      3.733450   672A      3.735765   673A      3.740719  
     674A      3.753579   675A      3.757981   676A      3.758457  
     677A      3.780637   678A      3.788007   679A      3.796918  
     680A      3.800628   681A      3.803024   682A      3.811591  
     683A      3.820511   684A      3.844970   685A      3.856698  
     686A      3.870112   687A      3.874020   688A      3.877684  
     689A      3.896736   690A      3.916719   691A      3.928690  
     692A      3.944318   693A      3.951396   694A      3.953452  
     695A      3.968727   696A      3.976339   697A      3.981413  
     698A      3.989460   699A      3.995304   700A      4.004481  
     701A      4.026022   702A      4.028424   703A      4.034416  
     704A      4.047118   705A      4.055726   706A      4.063055  
     707A      4.065189   708A      4.079711   709A      4.091743  
     710A      4.097794   711A      4.106351   712A      4.120186  
     713A      4.123408   714A      4.128539   715A      4.142912  
     716A      4.155115   717A      4.166844   718A      4.171949  
     719A      4.185604   720A      4.193744   721A      4.196945  
     722A      4.205407   723A      4.215913   724A      4.230418  
     725A      4.238923   726A      4.248995   727A      4.265198  
     728A      4.266233   729A      4.276292   730A      4.291064  
     731A      4.308946   732A      4.332866   733A      4.334048  
     734A      4.344022   735A      4.352382   736A      4.359658  
     737A      4.369431   738A      4.388061   739A      4.399726  
     740A      4.403296   741A      4.413520   742A      4.431130  
     743A      4.437515   744A      4.457928   745A      4.463039  
     746A      4.472841   747A      4.502674   748A      4.504859  
     749A      4.514175   750A      4.519382   751A      4.525434  
     752A      4.541614   753A      4.569201   754A      4.576805  
     755A      4.581261   756A      4.598340   757A      4.607761  
     758A      4.621324   759A      4.630707   760A      4.651642  
     761A      4.659982   762A      4.669844   763A      4.696876  
     764A      4.699744   765A      4.714557   766A      4.721276  
     767A      4.745911   768A      4.753150   769A      4.762196  
     770A      4.786621   771A      4.814055   772A      4.833743  
     773A      4.841992   774A      4.853876   775A      4.868173  
     776A      4.874307   777A      4.894220   778A      4.917284  
     779A      4.936921   780A      4.979518   781A      4.986027  
     782A      5.003729   783A      5.019631   784A      5.027624  
     785A      5.041768   786A      5.069547   787A      5.097564  
     788A      5.143789   789A      5.169820   790A      5.187820  
     791A      5.225619   792A      5.253309   793A      5.275446  
     794A      5.306073   795A      5.357343   796A      5.365984  
     797A      5.377583   798A      5.473877   799A      5.487260  
     800A      5.566130   801A      5.614911   802A      5.734029  
     803A      5.787064   804A      5.911128   805A      6.290269  
     806A      6.460305   807A      6.723576   808A      6.834963  
     809A      6.987299   810A      7.145032   811A     22.276436  
     812A     22.363777   813A     22.431647   814A     22.450388  
     815A     22.456848   816A     22.462464   817A     22.491671  
     818A     22.517238   819A     22.541514   820A     22.557406  
     821A     22.561006   822A     22.574574   823A     22.614327  
     824A     22.644574   825A     22.672421   826A     22.847308  
     827A     22.921691   828A     22.962190   829A     23.045499  
     830A     23.208260   831A     43.911425  

    Final Occupation by Irrep:
              A 
    DOCC [    79 ]
    NA   [    79 ]
    NB   [    79 ]

  @DF-RKS Final Energy:  -855.80760054572693

   => Energetics <=

    Nuclear Repulsion Energy =           1707.3701308818062898
    One-Electron Energy =               -4549.2567149436781619
    Two-Electron Energy =                2090.2577066014609954
    DFT Exchange-Correlation Energy =    -104.0715338116797142
    Empirical Dispersion Energy =          -0.1071892736360713
    VV10 Nonlocal Energy =                  0.0000000000000000
    Total Energy =                       -855.8076005457267001

Computation Completed


Properties will be evaluated at   0.000000,   0.000000,   0.000000 [a0]

Properties computed using the SCF density matrix


 Multipole Moments:

 ------------------------------------------------------------------------------------
     Multipole            Electronic (a.u.)      Nuclear  (a.u.)        Total (a.u.)
 ------------------------------------------------------------------------------------

 L = 1.  Multiply by 2.5417464519 to convert [e a0] to [Debye]
 Dipole X            :         88.0517624          -87.6753309            0.3764314
 Dipole Y            :        -14.7525326           14.4621912           -0.2903413
 Dipole Z            :         15.1155764          -15.4785645           -0.3629881
 Magnitude           :                                                    0.5981296

 ------------------------------------------------------------------------------------

*** tstop() called on choehoyun-ui-MacBookAir.local at Sun Aug  9 12:42:02 2026
Module time:
	user time   =    1306.87 seconds =      21.78 minutes
	system time =      26.40 seconds =       0.44 minutes
	total time  =        204 seconds =       3.40 minutes
Total time:
	user time   =    1306.87 seconds =      21.78 minutes
	system time =      26.40 seconds =       0.44 minutes
	total time  =        204 seconds =       3.40 minutes

    Psi4 stopped on: Sunday, 09 August 2026 12:42PM
    Psi4 wall time for execution: 0:03:23.24

*** Psi4 exiting successfully. Buy a developer a beer!
