
    -----------------------------------------------------------------------
          Psi4: An Open-Source Ab Initio Electronic Structure Package
                               Psi4 1.11 release

                         Git: Rev {} zzzzzzz 


    D. G. A. Smith, L. A. Burns, A. C. Simmonett, R. M. Parrish,
    M. C. Schieber, R. Galvelis, P. Kraus, H. Kruse, R. Di Remigio,
    A. Alenaizan, A. M. James, S. Lehtola, J. P. Misiewicz, M. Scheurer,
    R. A. Shaw, J. B. Schriber, Y. Xie, Z. L. Glick, D. A. Sirianni,
    J. S. O'Brien, J. M. Waldrop, A. Kumar, E. G. Hohenstein,
    B. P. Pritchard, B. R. Brooks, H. F. Schaefer III, A. Yu. Sokolov,
    K. Patkowski, A. E. DePrince III, U. Bozkaya, R. A. King,
    F. A. Evangelista, J. M. Turney, T. D. Crawford, C. D. Sherrill,
    J. Chem. Phys. 152(18) 184108 (2020). https://doi.org/10.1063/5.0006002

                            Additional Code Authors
    E. T. Seidl, C. L. Janssen, E. F. Valeev, M. L. Leininger,
    J. F. Gonthier, R. M. Richard, H. R. McAlexander, M. Saitow, X. Wang,
    P. Verma, M. H. Lechner, A. Jiang, S. Behnle, A. G. Heide,
    M. F. Herbst, D. L. Poole, T. Győri, E. C. Mitchell, J. P. Pederson,
    and A. M. Wallace

             Previous Authors, Complete List of Code Contributors,
                       and Citations for Specific Modules
    https://github.com/psi4/psi4/blob/master/codemeta.json
    https://github.com/psi4/psi4/graphs/contributors
    https://psicode.org/psi4manual/master/introduction.html#citing-psifour

    -----------------------------------------------------------------------


    Psi4 started on: Monday, 10 August 2026 08:22PM

    Process ID: 80129
    Host:       choehoyun-ui-MacBookAir.local
    PSIDATADIR: /Users/hoyoun/micromamba/envs/psi4env/share/psi4
    Memory:     500.0 MiB
    Threads:    8
    Addons:     a̶d̶c̶c̶, a̶m̶b̶i̶t̶, b̶s̶e̶, c̶c̶t̶3̶, c̶f̶o̶u̶r̶, c̶h̶e̶m̶p̶s̶2̶, c̶p̶p̶e̶, d̶d̶x̶, dftd3,
                d̶f̶t̶d̶4̶, dkh, ecpint, einsums, f̶o̶r̶t̶e̶, gauxc, g̶c̶p̶, g̶d̶m̶a̶,
                g̶e̶o̶m̶e̶t̶r̶i̶c̶, g̶p̶u̶_̶d̶f̶c̶c̶, i̶n̶t̶e̶g̶r̶a̶t̶o̶r̶x̶x̶, i̶p̶i̶,
                l̶i̶b̶e̶f̶p̶, m̶d̶i̶, m̶p̶2̶d̶, m̶r̶c̶c̶, ooo, o̶p̶e̶n̶f̶e̶r̶m̶i̶o̶n̶p̶s̶i̶4̶,
                pcmsolver, p̶s̶i̶4̶f̶o̶c̶k̶c̶i̶, p̶s̶i̶x̶a̶s̶, p̶y̶e̶i̶n̶s̶u̶m̶s̶, r̶e̶s̶p̶,
                s̶i̶m̶i̶n̶t̶, s̶n̶s̶m̶p̶2̶, v̶2̶r̶d̶m̶_̶c̶a̶s̶s̶c̶f̶

  ==> Input File <==

--------------------------------------------------------------------------
memory 3 GB
molecule mol {
0 1
C -2.95600477696639 -0.58997297187407 -0.54831287923592
C -1.82007476041251 0.34471260264734 -1.03249062088397
C -0.47105955072675 -0.40769160671137 -0.90156106575190
C -0.25459639080594 -0.46416744294606 0.66493473792978
C -1.50287683464942 0.27361826272522 1.21243839310990
C -2.73958219381696 -0.63517892937461 1.00627183309677
C -1.73532973338202 1.35693711009201 0.13407703759628
C 0.68956663593544 0.29815128436458 -1.61459906906683
C 2.05148274423863 -0.30999465019435 -1.23447496276103
C 2.25834501350987 -0.43889112151415 0.31155263202327
C 1.07637192885333 0.17084466677028 1.08561127321187
C 3.59064317531084 0.17847807817755 0.75662621030659
H -2.88711523286626 -1.58279862569309 -1.01050111395480
H -3.93860847605254 -0.16950044663359 -0.79658562178498
H -1.98589250584866 0.76768025989252 -2.03031442199970
H -0.56151866041364 -1.42443840417839 -1.30885982737664
H -0.25414900980198 -1.50861535236243 1.00708867082388
H -1.37943769054220 0.63213966513113 2.24114403076243
H -2.56037741661912 -1.65271097196676 1.37587511556374
H -3.61151993796966 -0.23152042065151 1.53609055238239
H -0.90093546777453 2.06145166329942 0.03950565451409
H -2.66546764876330 1.92078946462692 0.28336934221236
H 0.54436155908626 0.24344345644393 -2.70225214218806
H 0.68053813135875 1.36442862649219 -1.34957392474177
H 2.85268032131612 0.30653658968004 -1.66635570457785
H 2.13945181979919 -1.30321736086900 -1.69675978134223
H 2.28005633796485 -1.51007989198328 0.56297043230318
H 1.22950576846607 0.02896494042041 2.16467904797753
H 1.04693771512854 1.25649979564312 0.91024802487627
H 3.59978772006609 1.25644885932294 0.53788650994065
H 4.43625922185526 -0.28045323549411 0.22599848744962
H 3.74855819452256 0.04810610671717 1.83627314958499
units angstrom
no_reorient
no_com
}
set basis def2-SVP
set scf_type df
set freeze_core true
set e_convergence 8
energy('b3lyp-d3bj')
--------------------------------------------------------------------------

  Memory set to   2.794 GiB by Python driver.

Scratch directory: /Users/hoyoun/Documents/Yonsei_AX_Camp/(진짜_이게_최종)/calibration/dft_work/_scratch/i9p/
   => Libint2 <=

    Primary   basis highest AM E, G, H:  7, 6, 3
    Auxiliary basis highest AM E, G, H:  7, 7, 4
    Onebody   basis highest AM E, G, H:  -, -, -
    Solid Harmonics ordering:            Gaussian

*** tstart() called on choehoyun-ui-MacBookAir.local
*** at Mon Aug 10 20:22:53 2026

   => Loading Basis Set <=

    Name: DEF2-SVP
    Role: ORBITAL
    Keyword: BASIS
    atoms 1-12  entry C          line    90 file /Users/hoyoun/micromamba/envs/psi4env/share/psi4/basis/def2-svp.gbs 
    atoms 13-32 entry H          line    15 file /Users/hoyoun/micromamba/envs/psi4env/share/psi4/basis/def2-svp.gbs 

   => B3LYP-D3(BJ): Empirical Dispersion <=

    Grimme's -D3 (BJ-damping) Dispersion Correction
    Grimme S.; Ehrlich S.; Goerigk L. (2011), J. Comput. Chem., 32: 1456

        s6 =       1.000000
        s8 =       1.988900
        a1 =       0.398100
        a2 =       4.421100


         ---------------------------------------------------------
                                   SCF
               by Justin Turney, Rob Parrish, Andy Simmonett
                          and Daniel G. A. Smith
                              RKS Reference
                        8 Threads,   2861 MiB Core
         ---------------------------------------------------------

  ==> Geometry <==

    Molecular point group: c1
    Full point group: C1

    Geometry (in Angstrom), charge = 0, multiplicity = 1:

       Center              X                  Y                   Z               Mass       
    ------------   -----------------  -----------------  -----------------  -----------------
         C           -2.956004776966    -0.589972971874    -0.548312879236    12.000000000000
         C           -1.820074760413     0.344712602647    -1.032490620884    12.000000000000
         C           -0.471059550727    -0.407691606711    -0.901561065752    12.000000000000
         C           -0.254596390806    -0.464167442946     0.664934737930    12.000000000000
         C           -1.502876834649     0.273618262725     1.212438393110    12.000000000000
         C           -2.739582193817    -0.635178929375     1.006271833097    12.000000000000
         C           -1.735329733382     1.356937110092     0.134077037596    12.000000000000
         C            0.689566635935     0.298151284365    -1.614599069067    12.000000000000
         C            2.051482744239    -0.309994650194    -1.234474962761    12.000000000000
         C            2.258345013510    -0.438891121514     0.311552632023    12.000000000000
         C            1.076371928853     0.170844666770     1.085611273212    12.000000000000
         C            3.590643175311     0.178478078178     0.756626210307    12.000000000000
         H           -2.887115232866    -1.582798625693    -1.010501113955     1.007825032230
         H           -3.938608476053    -0.169500446634    -0.796585621785     1.007825032230
         H           -1.985892505849     0.767680259893    -2.030314422000     1.007825032230
         H           -0.561518660414    -1.424438404178    -1.308859827377     1.007825032230
         H           -0.254149009802    -1.508615352362     1.007088670824     1.007825032230
         H           -1.379437690542     0.632139665131     2.241144030762     1.007825032230
         H           -2.560377416619    -1.652710971967     1.375875115564     1.007825032230
         H           -3.611519937970    -0.231520420652     1.536090552382     1.007825032230
         H           -0.900935467775     2.061451663299     0.039505654514     1.007825032230
         H           -2.665467648763     1.920789464627     0.283369342212     1.007825032230
         H            0.544361559086     0.243443456444    -2.702252142188     1.007825032230
         H            0.680538131359     1.364428626492    -1.349573924742     1.007825032230
         H            2.852680321316     0.306536589680    -1.666355704578     1.007825032230
         H            2.139451819799    -1.303217360869    -1.696759781342     1.007825032230
         H            2.280056337965    -1.510079891983     0.562970432303     1.007825032230
         H            1.229505768466     0.028964940420     2.164679047978     1.007825032230
         H            1.046937715129     1.256499795643     0.910248024876     1.007825032230
         H            3.599787720066     1.256448859323     0.537886509941     1.007825032230
         H            4.436259221855    -0.280453235494     0.225998487450     1.007825032230
         H            3.748558194523     0.048106106717     1.836273149585     1.007825032230

  Running in c1 symmetry.

  Rotational constants: A =      0.06825  B =      0.02147  C =      0.01895 [cm^-1]
  Rotational constants: A =   2045.96090  B =    643.62623  C =    568.06430 [MHz]
  Nuclear repulsion =  771.134755389168276

  Charge       = 0
  Multiplicity = 1
  Electrons    = 92
  Nalpha       = 46
  Nbeta        = 46

  ==> Algorithm <==

  SCF Algorithm Type is DF.
  DIIS enabled.
  MOM disabled.
  Fractional occupation disabled.
  Guess Type is SAD.
  Energy threshold   = 1.00e-08
  Density threshold  = 1.00e-06
  Integral threshold = 1.00e-12

  ==> Primary Basis <==

  Basis Set: DEF2-SVP
    Blend: DEF2-SVP
    Number of shells: 132
    Number of basis functions: 268
    Number of Cartesian functions: 280
    Spherical Harmonics?: true
    Max angular momentum: 2

  ==> DFT Potential <==

   => LibXC <=

    Version 7.1.2
    S. Lehtola, C. Steigemann, M. J. T. Oliveira, and M. A. L. Marques,  SoftwareX 7, 1–5 (2018) (10.1016/j.softx.2017.11.002)

   => Composite Functional: B3LYP-D3BJ2B <= 

    B3LYP-d3bj2b Hyb-GGA Exchange-Correlation Functional

    P. J. Stephens, F. J. Devlin, C. F. Chabalowski, and M. J. Frisch,  J. Phys. Chem. 98, 11623 (1994) (10.1021/j100096a001)

    Deriv               =              1
    GGA                 =           TRUE
    Meta                =          FALSE

    Exchange Hybrid     =           TRUE
    MP2 Hybrid          =          FALSE

   => Exchange Functionals <=

    0.0800   Slater exchange
    0.7200         Becke 88

   => Exact (HF) Exchange <=

    0.2000               HF 

   => Correlation Functionals <=

    0.1900   Vosko, Wilk & Nusair (VWN5_RPA)
    0.8100   Lee, Yang & Parr

   => LibXC Density Thresholds  <==

    XC_HYB_GGA_XC_B3LYP:  1.00E-15 

   => Molecular Quadrature <=

    Radial Scheme          =       TREUTLER
    Pruning Scheme         =           NONE
    Nuclear Scheme         =       TREUTLER

    Blocking Scheme        =         OCTREE
    BS radius alpha        =              1
    Pruning alpha          =              1
    Radial Points          =             75
    Spherical Points       =            302
    Total Points           =         656221
    Total Blocks           =           4705
    Max Points             =            256
    Max Functions          =            248
    Weights Tolerance      =       1.00E-15

   => Loading Basis Set <=

    Name: (DEF2-SVP AUX)
    Role: JKFIT
    Keyword: DF_BASIS_SCF
    atoms 1-12  entry C          line   198 file /Users/hoyoun/micromamba/envs/psi4env/share/psi4/basis/def2-universal-jkfit.gbs 
    atoms 13-32 entry H          line    18 file /Users/hoyoun/micromamba/envs/psi4env/share/psi4/basis/def2-universal-jkfit.gbs 

  ==> Integral Setup <==

  DFHelper Memory: AOs need 0.633 GiB; user supplied 0.633 GiB. 
  SCF_SUBTYPE=INCORE selected. In-core MEM_DF algorithm will be used.
  Using in-core AOs.

  ==> MemDFJK: Density-Fitted J/K Matrices <==

    J tasked:                   Yes
    K tasked:                   Yes
    wK tasked:                   No
    OpenMP threads:               8
    Memory [MiB]:               648
    Algorithm:                 Core
    Schwarz Cutoff:           1E-12
    Mask sparsity (%):      10.6232
    Fitting Condition:        1E-10

   => Auxiliary Basis Set <=

  Basis Set: (DEF2-SVP AUX)
    Blend: DEF2-UNIVERSAL-JKFIT
    Number of shells: 420
    Number of basis functions: 1260
    Number of Cartesian functions: 1468
    Spherical Harmonics?: true
    Max angular momentum: 4

  Cached 33.3% of DFT collocation blocks in 1.081 [GiB].

  Minimum eigenvalue in the overlap matrix is 2.9975118262E-04.
  Reciprocal condition number of the overlap matrix is 3.5808351990E-05.
    Using symmetric orthogonalization.

  ==> Pre-Iterations <==

  SCF Guess: Superposition of Atomic Densities via on-the-fly atomic UHF (no occupation information).

   -------------------------
    Irrep   Nso     Nmo    
   -------------------------
     A        268     268 
   -------------------------
    Total     268     268
   -------------------------

  ==> Iterations <==

                           Total Energy        Delta E     RMS |[F,P]|

   @DF-RKS iter SAD:  -468.80495292288145   -4.68805e+02   0.00000e+00 
   @DF-RKS iter   1:  -468.06096351472388    7.43989e-01   4.90060e-03 ADIIS/DIIS
   @DF-RKS iter   2:  -467.06060365842154    1.00036e+00   7.14218e-03 ADIIS/DIIS
   @DF-RKS iter   3:  -469.03673267735223   -1.97613e+00   7.04170e-04 ADIIS/DIIS
   @DF-RKS iter   4:  -469.04910575258180   -1.23731e-02   3.59138e-04 ADIIS/DIIS
   @DF-RKS iter   5:  -469.05355113996194   -4.44539e-03   7.15829e-05 DIIS
   @DF-RKS iter   6:  -469.05372759341213   -1.76453e-04   1.61940e-05 DIIS
   @DF-RKS iter   7:  -469.05373633862138   -8.74521e-06   4.78701e-06 DIIS
   @DF-RKS iter   8:  -469.05373713870125   -8.00080e-07   9.15008e-07 DIIS
   @DF-RKS iter   9:  -469.05373716956097   -3.08597e-08   2.54798e-07 DIIS
   @DF-RKS iter  10:  -469.05373717174228   -2.18131e-09   9.14654e-08 DIIS
  Energy and wave function converged.


  ==> Post-Iterations <==

   Electrons on quadrature grid:
      Ntotal   =   91.9997267629 ; deviation = -2.732e-04 

    Orbital Energies [Eh]
    ---------------------

    Doubly Occupied:                                                      

       1A    -10.181972     2A    -10.179719     3A    -10.179582  
       4A    -10.177590     5A    -10.177429     6A    -10.175933  
       7A    -10.175878     8A    -10.175311     9A    -10.174794  
      10A    -10.174473    11A    -10.173531    12A    -10.172860  
      13A     -0.866012    14A     -0.807384    15A     -0.748554  
      16A     -0.732621    17A     -0.697535    18A     -0.686149  
      19A     -0.654543    20A     -0.610366    21A     -0.578038  
      22A     -0.542832    23A     -0.529324    24A     -0.510907  
      25A     -0.501074    26A     -0.481021    27A     -0.466643  
      28A     -0.451754    29A     -0.424879    30A     -0.410225  
      31A     -0.402350    32A     -0.388067    33A     -0.380195  
      34A     -0.366398    35A     -0.363517    36A     -0.349460  
      37A     -0.348096    38A     -0.341550    39A     -0.335564  
      40A     -0.329466    41A     -0.320843    42A     -0.317271  
      43A     -0.309118    44A     -0.294227    45A     -0.289711  
      46A     -0.275944  

    Virtual:                                                              

      47A      0.046055    48A      0.061055    49A      0.063681  
      50A      0.086758    51A      0.090392    52A      0.099674  
      53A      0.108691    54A      0.114303    55A      0.120954  
      56A      0.125486    57A      0.128697    58A      0.132965  
      59A      0.142303    60A      0.151321    61A      0.155568  
      62A      0.163656    63A      0.166753    64A      0.176233  
      65A      0.180864    66A      0.186658    67A      0.189877  
      68A      0.205187    69A      0.212312    70A      0.223115  
      71A      0.229033    72A      0.230942    73A      0.239591  
      74A      0.243469    75A      0.259515    76A      0.277747  
      77A      0.290716    78A      0.293773    79A      0.324636  
      80A      0.356844    81A      0.394741    82A      0.421794  
      83A      0.433193    84A      0.444118    85A      0.448798  
      86A      0.463022    87A      0.487365    88A      0.491213  
      89A      0.509875    90A      0.514850    91A      0.529880  
      92A      0.542749    93A      0.571828    94A      0.581339  
      95A      0.586808    96A      0.592930    97A      0.601165  
      98A      0.605430    99A      0.616440   100A      0.624324  
     101A      0.633256   102A      0.635658   103A      0.639731  
     104A      0.648360   105A      0.653101   106A      0.657703  
     107A      0.665290   108A      0.669742   109A      0.673588  
     110A      0.678702   111A      0.679329   112A      0.681617  
     113A      0.685351   114A      0.687139   115A      0.693234  
     116A      0.696086   117A      0.701840   118A      0.703701  
     119A      0.709200   120A      0.713603   121A      0.717108  
     122A      0.723192   123A      0.726766   124A      0.740863  
     125A      0.748982   126A      0.769060   127A      0.773207  
     128A      0.783663   129A      0.802125   130A      0.836161  
     131A      0.848028   132A      0.894208   133A      0.925066  
     134A      0.943982   135A      0.949885   136A      0.990476  
     137A      1.000995   138A      1.030847   139A      1.038039  
     140A      1.049164   141A      1.069849   142A      1.086624  
     143A      1.181818   144A      1.187882   145A      1.203793  
     146A      1.226281   147A      1.241755   148A      1.261148  
     149A      1.272856   150A      1.310169   151A      1.345575  
     152A      1.356958   153A      1.383641   154A      1.428330  
     155A      1.442356   156A      1.450043   157A      1.467946  
     158A      1.488309   159A      1.539611   160A      1.557022  
     161A      1.561255   162A      1.567973   163A      1.586404  
     164A      1.595819   165A      1.619710   166A      1.659826  
     167A      1.673378   168A      1.703756   169A      1.706182  
     170A      1.708768   171A      1.711460   172A      1.731030  
     173A      1.751134   174A      1.759775   175A      1.766208  
     176A      1.784822   177A      1.790458   178A      1.799561  
     179A      1.804810   180A      1.807785   181A      1.816054  
     182A      1.820663   183A      1.831193   184A      1.842018  
     185A      1.845482   186A      1.854742   187A      1.861337  
     188A      1.874015   189A      1.886292   190A      1.890010  
     191A      1.904372   192A      1.911112   193A      1.928664  
     194A      1.937765   195A      1.941272   196A      1.950561  
     197A      1.957452   198A      1.970248   199A      1.977281  
     200A      1.978997   201A      1.995417   202A      2.014224  
     203A      2.020796   204A      2.043843   205A      2.050187  
     206A      2.067628   207A      2.077165   208A      2.091215  
     209A      2.121071   210A      2.128265   211A      2.137121  
     212A      2.148066   213A      2.163885   214A      2.171715  
     215A      2.184624   216A      2.200494   217A      2.211422  
     218A      2.259209   219A      2.277109   220A      2.303556  
     221A      2.328168   222A      2.341395   223A      2.349973  
     224A      2.370371   225A      2.386525   226A      2.417524  
     227A      2.440868   228A      2.443441   229A      2.455209  
     230A      2.465161   231A      2.484393   232A      2.498290  
     233A      2.529346   234A      2.546657   235A      2.555899  
     236A      2.561234   237A      2.584403   238A      2.587910  
     239A      2.605145   240A      2.619451   241A      2.634221  
     242A      2.651967   243A      2.689038   244A      2.717310  
     245A      2.754709   246A      2.773418   247A      2.824974  
     248A      2.840082   249A      2.851018   250A      2.861616  
     251A      2.881976   252A      2.886980   253A      2.894227  
     254A      2.909454   255A      2.916991   256A      2.950470  
     257A      2.967649   258A      2.991825   259A      3.001118  
     260A      3.004672   261A      3.037485   262A      3.059843  
     263A      3.065751   264A      3.077254   265A      3.099975  
     266A      3.110598   267A      3.135819   268A      3.151086  

    Final Occupation by Irrep:
              A 
    DOCC [    46 ]
    NA   [    46 ]
    NB   [    46 ]

  @DF-RKS Final Energy:  -469.05373717174228

   => Energetics <=

    Nuclear Repulsion Energy =            771.1347553891682765
    One-Electron Energy =               -2161.5550907864458168
    Two-Electron Energy =                 980.2021965169554960
    DFT Exchange-Correlation Energy =     -58.7737215846111098
    Empirical Dispersion Energy =          -0.0618767068090996
    VV10 Nonlocal Energy =                  0.0000000000000000
    Total Energy =                       -469.0537371717422275

Computation Completed


Properties will be evaluated at   0.000000,   0.000000,   0.000000 [a0]

Properties computed using the SCF density matrix


 Multipole Moments:

 ------------------------------------------------------------------------------------
     Multipole            Electronic (a.u.)      Nuclear  (a.u.)        Total (a.u.)
 ------------------------------------------------------------------------------------

 L = 1.  Multiply by 2.5417464519 to convert [e a0] to [Debye]
 Dipole X            :         17.1312894          -17.1314515           -0.0001621
 Dipole Y            :          2.0936699           -2.1085065           -0.0148366
 Dipole Z            :          1.5041468           -1.5110862           -0.0069395
 Magnitude           :                                                    0.0163801

 ------------------------------------------------------------------------------------

*** tstop() called on choehoyun-ui-MacBookAir.local at Mon Aug 10 20:23:22 2026
Module time:
	user time   =     162.71 seconds =       2.71 minutes
	system time =       2.52 seconds =       0.04 minutes
	total time  =         29 seconds =       0.48 minutes
Total time:
	user time   =     162.71 seconds =       2.71 minutes
	system time =       2.52 seconds =       0.04 minutes
	total time  =         29 seconds =       0.48 minutes

    Psi4 stopped on: Monday, 10 August 2026 08:23PM
    Psi4 wall time for execution: 0:00:29.41

*** Psi4 exiting successfully. Buy a developer a beer!
