
    -----------------------------------------------------------------------
          Psi4: An Open-Source Ab Initio Electronic Structure Package
                               Psi4 1.11 release

                         Git: Rev {} zzzzzzz 


    D. G. A. Smith, L. A. Burns, A. C. Simmonett, R. M. Parrish,
    M. C. Schieber, R. Galvelis, P. Kraus, H. Kruse, R. Di Remigio,
    A. Alenaizan, A. M. James, S. Lehtola, J. P. Misiewicz, M. Scheurer,
    R. A. Shaw, J. B. Schriber, Y. Xie, Z. L. Glick, D. A. Sirianni,
    J. S. O'Brien, J. M. Waldrop, A. Kumar, E. G. Hohenstein,
    B. P. Pritchard, B. R. Brooks, H. F. Schaefer III, A. Yu. Sokolov,
    K. Patkowski, A. E. DePrince III, U. Bozkaya, R. A. King,
    F. A. Evangelista, J. M. Turney, T. D. Crawford, C. D. Sherrill,
    J. Chem. Phys. 152(18) 184108 (2020). https://doi.org/10.1063/5.0006002

                            Additional Code Authors
    E. T. Seidl, C. L. Janssen, E. F. Valeev, M. L. Leininger,
    J. F. Gonthier, R. M. Richard, H. R. McAlexander, M. Saitow, X. Wang,
    P. Verma, M. H. Lechner, A. Jiang, S. Behnle, A. G. Heide,
    M. F. Herbst, D. L. Poole, T. Győri, E. C. Mitchell, J. P. Pederson,
    and A. M. Wallace

             Previous Authors, Complete List of Code Contributors,
                       and Citations for Specific Modules
    https://github.com/psi4/psi4/blob/master/codemeta.json
    https://github.com/psi4/psi4/graphs/contributors
    https://psicode.org/psi4manual/master/introduction.html#citing-psifour

    -----------------------------------------------------------------------


    Psi4 started on: Sunday, 09 August 2026 04:20PM

    Process ID: 61838
    Host:       choehoyun-ui-MacBookAir.local
    PSIDATADIR: /Users/hoyoun/micromamba/envs/psi4env/share/psi4
    Memory:     500.0 MiB
    Threads:    8
    Addons:     a̶d̶c̶c̶, a̶m̶b̶i̶t̶, b̶s̶e̶, c̶c̶t̶3̶, c̶f̶o̶u̶r̶, c̶h̶e̶m̶p̶s̶2̶, c̶p̶p̶e̶, d̶d̶x̶, dftd3,
                d̶f̶t̶d̶4̶, dkh, ecpint, einsums, f̶o̶r̶t̶e̶, gauxc, g̶c̶p̶, g̶d̶m̶a̶,
                g̶e̶o̶m̶e̶t̶r̶i̶c̶, g̶p̶u̶_̶d̶f̶c̶c̶, i̶n̶t̶e̶g̶r̶a̶t̶o̶r̶x̶x̶, i̶p̶i̶,
                l̶i̶b̶e̶f̶p̶, m̶d̶i̶, m̶p̶2̶d̶, m̶r̶c̶c̶, ooo, o̶p̶e̶n̶f̶e̶r̶m̶i̶o̶n̶p̶s̶i̶4̶,
                pcmsolver, p̶s̶i̶4̶f̶o̶c̶k̶c̶i̶, p̶s̶i̶x̶a̶s̶, p̶y̶e̶i̶n̶s̶u̶m̶s̶, r̶e̶s̶p̶,
                s̶i̶m̶i̶n̶t̶, s̶n̶s̶m̶p̶2̶, v̶2̶r̶d̶m̶_̶c̶a̶s̶s̶c̶f̶

  ==> Input File <==

--------------------------------------------------------------------------
memory 3 GB
molecule mol {
0 1
C 0.00000000000000 0.18366498694075 0.00000000000000
C 1.35289290373413 -0.31155897795415 0.00000000000000
C 0.38421497249811 -1.20172491474452 0.00000000000000
C -0.89617893616206 1.16110891753730 0.00000000000000
C -0.05528299611193 -2.60590881495545 0.00000000000000
C -0.54377696144006 2.62106081376996 0.00000000000000
H 2.41035982868410 -0.11480299191163 0.00000000000000
H -1.94691586154527 0.89556993627313 0.00000000000000
H -0.67687095200471 -2.80203080119006 0.87634093767562
H -0.67687095200471 -2.80203080119006 -0.87634093767562
H 0.53803396203998 2.76129280376439 0.00000000000000
H -0.94351193316869 3.13846577698725 -0.87746193768319
H 0.78807294379714 -3.29477976616880 0.00000000000000
H -0.94351193316869 3.13846577698725 0.87746193768319
units angstrom
no_reorient
no_com
}
set basis def2-TZVP
set scf_type df
set freeze_core true
set e_convergence 8
energy('b3lyp-d3bj')
--------------------------------------------------------------------------

  Memory set to   2.794 GiB by Python driver.

Scratch directory: /Users/hoyoun/Documents/Yonsei_AX_Camp/(진짜_이게_최종)/calibration/dft_work/_scratch/R26/
   => Libint2 <=

    Primary   basis highest AM E, G, H:  7, 6, 3
    Auxiliary basis highest AM E, G, H:  7, 7, 4
    Onebody   basis highest AM E, G, H:  -, -, -
    Solid Harmonics ordering:            Gaussian

*** tstart() called on choehoyun-ui-MacBookAir.local
*** at Sun Aug  9 16:20:38 2026

   => Loading Basis Set <=

    Name: DEF2-TZVP
    Role: ORBITAL
    Keyword: BASIS
    atoms 1-6  entry C          line   123 file /Users/hoyoun/micromamba/envs/psi4env/share/psi4/basis/def2-tzvp.gbs 
    atoms 7-14 entry H          line    15 file /Users/hoyoun/micromamba/envs/psi4env/share/psi4/basis/def2-tzvp.gbs 

   => B3LYP-D3(BJ): Empirical Dispersion <=

    Grimme's -D3 (BJ-damping) Dispersion Correction
    Grimme S.; Ehrlich S.; Goerigk L. (2011), J. Comput. Chem., 32: 1456

        s6 =       1.000000
        s8 =       1.988900
        a1 =       0.398100
        a2 =       4.421100


         ---------------------------------------------------------
                                   SCF
               by Justin Turney, Rob Parrish, Andy Simmonett
                          and Daniel G. A. Smith
                              RKS Reference
                        8 Threads,   2861 MiB Core
         ---------------------------------------------------------

  ==> Geometry <==

    Molecular point group: cs
    Full point group: Cs

    Geometry (in Angstrom), charge = 0, multiplicity = 1:

       Center              X                  Y                   Z               Mass       
    ------------   -----------------  -----------------  -----------------  -----------------
         C            0.000000000000     0.183664986941     0.000000000000    12.000000000000
         C            1.352892903734    -0.311558977954     0.000000000000    12.000000000000
         C            0.384214972498    -1.201724914745     0.000000000000    12.000000000000
         C           -0.896178936162     1.161108917537     0.000000000000    12.000000000000
         C           -0.055282996112    -2.605908814955     0.000000000000    12.000000000000
         C           -0.543776961440     2.621060813770     0.000000000000    12.000000000000
         H            2.410359828684    -0.114802991912     0.000000000000     1.007825032230
         H           -1.946915861545     0.895569936273     0.000000000000     1.007825032230
         H           -0.676870952005    -2.802030801190     0.876340937676     1.007825032230
         H           -0.676870952005    -2.802030801190    -0.876340937676     1.007825032230
         H            0.538033962040     2.761292803764     0.000000000000     1.007825032230
         H           -0.943511933169     3.138465776987    -0.877461937683     1.007825032230
         H            0.788072943797    -3.294779766169     0.000000000000     1.007825032230
         H           -0.943511933169     3.138465776987     0.877461937683     1.007825032230

  Running in cs symmetry.

  Rotational constants: A =      0.37992  B =      0.06332  C =      0.05538 [cm^-1]
  Rotational constants: A =  11389.60722  B =   1898.28673  C =   1660.24002 [MHz]
  Nuclear repulsion =  202.388541169532289

  Charge       = 0
  Multiplicity = 1
  Electrons    = 44
  Nalpha       = 22
  Nbeta        = 22

  ==> Algorithm <==

  SCF Algorithm Type is DF.
  DIIS enabled.
  MOM disabled.
  Fractional occupation disabled.
  Guess Type is SAD.
  Energy threshold   = 1.00e-08
  Density threshold  = 1.00e-06
  Integral threshold = 1.00e-12

  ==> Primary Basis <==

  Basis Set: DEF2-TZVP
    Blend: DEF2-TZVP
    Number of shells: 98
    Number of basis functions: 234
    Number of Cartesian functions: 264
    Spherical Harmonics?: true
    Max angular momentum: 3

  ==> DFT Potential <==

   => LibXC <=

    Version 7.1.2
    S. Lehtola, C. Steigemann, M. J. T. Oliveira, and M. A. L. Marques,  SoftwareX 7, 1–5 (2018) (10.1016/j.softx.2017.11.002)

   => Composite Functional: B3LYP-D3BJ2B <= 

    B3LYP-d3bj2b Hyb-GGA Exchange-Correlation Functional

    P. J. Stephens, F. J. Devlin, C. F. Chabalowski, and M. J. Frisch,  J. Phys. Chem. 98, 11623 (1994) (10.1021/j100096a001)

    Deriv               =              1
    GGA                 =           TRUE
    Meta                =          FALSE

    Exchange Hybrid     =           TRUE
    MP2 Hybrid          =          FALSE

   => Exchange Functionals <=

    0.0800   Slater exchange
    0.7200         Becke 88

   => Exact (HF) Exchange <=

    0.2000               HF 

   => Correlation Functionals <=

    0.1900   Vosko, Wilk & Nusair (VWN5_RPA)
    0.8100   Lee, Yang & Parr

   => LibXC Density Thresholds  <==

    XC_HYB_GGA_XC_B3LYP:  1.00E-15 

   => Molecular Quadrature <=

    Radial Scheme          =       TREUTLER
    Pruning Scheme         =           NONE
    Nuclear Scheme         =       TREUTLER

    Blocking Scheme        =         OCTREE
    BS radius alpha        =              1
    Pruning alpha          =              1
    Radial Points          =             75
    Spherical Points       =            302
    Total Points           =         299290
    Total Blocks           =           2218
    Max Points             =            256
    Max Functions          =            226
    Weights Tolerance      =       1.00E-15

   => Loading Basis Set <=

    Name: (DEF2-TZVP AUX)
    Role: JKFIT
    Keyword: DF_BASIS_SCF
    atoms 1-6  entry C          line   198 file /Users/hoyoun/micromamba/envs/psi4env/share/psi4/basis/def2-universal-jkfit.gbs 
    atoms 7-14 entry H          line    18 file /Users/hoyoun/micromamba/envs/psi4env/share/psi4/basis/def2-universal-jkfit.gbs 

  ==> Integral Setup <==

  DFHelper Memory: AOs need 0.245 GiB; user supplied 0.665 GiB. 
  SCF_SUBTYPE=INCORE selected. In-core MEM_DF algorithm will be used.
  Using in-core AOs.

  ==> MemDFJK: Density-Fitted J/K Matrices <==

    J tasked:                   Yes
    K tasked:                   Yes
    wK tasked:                   No
    OpenMP threads:               8
    Memory [MiB]:               681
    Algorithm:                 Core
    Schwarz Cutoff:           1E-12
    Mask sparsity (%):       5.7491
    Fitting Condition:        1E-10

   => Auxiliary Basis Set <=

  Basis Set: (DEF2-TZVP AUX)
    Blend: DEF2-UNIVERSAL-JKFIT
    Number of shells: 198
    Number of basis functions: 594
    Number of Cartesian functions: 694
    Spherical Harmonics?: true
    Max angular momentum: 4

  Cached 100.0% of DFT collocation blocks in 1.430 [GiB].

  Minimum eigenvalue in the overlap matrix is 5.0301384518E-05.
  Reciprocal condition number of the overlap matrix is 5.9020667775E-06.
    Using symmetric orthogonalization.

  ==> Pre-Iterations <==

  SCF Guess: Superposition of Atomic Densities via on-the-fly atomic UHF (no occupation information).

   -------------------------
    Irrep   Nso     Nmo    
   -------------------------
     A'       158     158 
     A"        76      76 
   -------------------------
    Total     234     234
   -------------------------

  ==> Iterations <==

                           Total Energy        Delta E     RMS |[F,P]|

   @DF-RKS iter SAD:  -232.77626566519027   -2.32776e+02   0.00000e+00 
   @DF-RKS iter   1:  -232.77882436136832   -2.55870e-03   6.48072e-03 DIIS/ADIIS
   @DF-RKS iter   2:  -232.42609998416006    3.52724e-01   7.60770e-03 DIIS/ADIIS
   @DF-RKS iter   3:  -233.43349537980225   -1.00740e+00   1.06523e-03 DIIS/ADIIS
   @DF-RKS iter   4:  -233.44419321211768   -1.06978e-02   7.27684e-04 DIIS/ADIIS
   @DF-RKS iter   5:  -233.45178720366997   -7.59399e-03   1.66717e-04 DIIS/ADIIS
   @DF-RKS iter   6:  -233.45216932278404   -3.82119e-04   5.82938e-05 DIIS
   @DF-RKS iter   7:  -233.45221915464381   -4.98319e-05   1.07212e-05 DIIS
   @DF-RKS iter   8:  -233.45222057208849   -1.41744e-06   4.24022e-06 DIIS
   @DF-RKS iter   9:  -233.45222080867791   -2.36589e-07   1.49278e-06 DIIS
   @DF-RKS iter  10:  -233.45222084069408   -3.20162e-08   3.97621e-07 DIIS
   @DF-RKS iter  11:  -233.45222084316688   -2.47280e-09   6.09143e-08 DIIS
  Energy and wave function converged.


  ==> Post-Iterations <==

   Electrons on quadrature grid:
      Ntotal   =   43.9999886731 ; deviation = -1.133e-05 

    Orbital Energies [Eh]
    ---------------------

    Doubly Occupied:                                                      

       1Ap   -10.212559     2Ap   -10.198560     3Ap   -10.193389  
       4Ap   -10.186608     5Ap   -10.147175     6Ap   -10.137104  
       7Ap    -0.904847     8Ap    -0.757347     9Ap    -0.741467  
      10Ap    -0.639474    11Ap    -0.566989    12Ap    -0.511773  
      13Ap    -0.468252    14Ap    -0.448744     1App   -0.445602  
      15Ap    -0.400832     2App   -0.394783    16Ap    -0.366712  
       3App   -0.355260    17Ap    -0.343693    18Ap    -0.293538  
       4App   -0.192484  

    Virtual:                                                              

       5App   -0.010355    19Ap     0.035767    20Ap     0.059261  
       6App    0.062140    21Ap     0.077668    22Ap     0.088523  
      23Ap     0.102158     7App    0.113348    24Ap     0.122668  
      25Ap     0.127728     8App    0.131171    26Ap     0.153607  
      27Ap     0.161354     9App    0.183143    28Ap     0.185214  
      29Ap     0.188808    30Ap     0.219930    10App    0.226046  
      31Ap     0.239143    11App    0.255622    32Ap     0.262952  
      33Ap     0.267561    34Ap     0.294869    12App    0.301965  
      35Ap     0.316246    36Ap     0.339909    13App    0.353602  
      37Ap     0.382392    38Ap     0.394734    39Ap     0.407757  
      14App    0.414250    40Ap     0.416797    41Ap     0.438980  
      42Ap     0.449829    15App    0.449959    43Ap     0.458794  
      44Ap     0.463063    16App    0.481298    45Ap     0.490518  
      46Ap     0.509095    47Ap     0.533247    48Ap     0.549756  
      49Ap     0.561310    50Ap     0.612227    51Ap     0.628874  
      17App    0.631644    18App    0.649660    52Ap     0.662507  
      19App    0.691762    53Ap     0.733711    54Ap     0.748020  
      20App    0.771302    55Ap     0.814675    56Ap     0.852568  
      21App    0.870027    57Ap     0.875960    58Ap     0.901887  
      22App    0.920049    59Ap     0.927453    60Ap     0.970761  
      61Ap     1.006495    23App    1.028093    62Ap     1.073167  
      63Ap     1.085073    24App    1.092172    25App    1.093591  
      64Ap     1.111310    65Ap     1.144488    66Ap     1.202085  
      26App    1.214811    67Ap     1.247113    68Ap     1.263881  
      69Ap     1.299386    27App    1.301461    70Ap     1.400422  
      28App    1.409897    71Ap     1.411690    29App    1.433946  
      72Ap     1.482169    73Ap     1.492928    30App    1.509701  
      74Ap     1.520430    31App    1.520621    75Ap     1.545963  
      32App    1.554577    33App    1.563675    76Ap     1.587062  
      77Ap     1.600887    34App    1.632790    78Ap     1.655508  
      35App    1.673383    36App    1.713972    79Ap     1.730116  
      80Ap     1.779055    81Ap     1.822840    82Ap     1.833943  
      83Ap     1.864151    37App    1.887635    84Ap     1.931107  
      85Ap     1.978274    86Ap     1.983792    38App    1.995444  
      87Ap     2.052506    39App    2.075052    88Ap     2.109452  
      89Ap     2.124557    90Ap     2.154320    40App    2.158710  
      91Ap     2.205473    92Ap     2.246586    93Ap     2.285224  
      41App    2.291231    42App    2.334383    94Ap     2.372031  
      43App    2.385568    95Ap     2.406643    44App    2.409108  
      96Ap     2.428285    45App    2.432448    97Ap     2.443185  
      98Ap     2.486991    46App    2.497421    99Ap     2.549408  
      47App    2.554039   100Ap     2.570466   101Ap     2.590145  
     102Ap     2.599182   103Ap     2.679417    48App    2.691216  
     104Ap     2.720914   105Ap     2.740068    49App    2.741888  
      50App    2.762468   106Ap     2.767652   107Ap     2.827306  
     108Ap     2.845840   109Ap     2.867780    51App    2.869410  
      52App    2.898017   110Ap     2.905413   111Ap     2.965387  
      53App    2.976916    54App    3.005553   112Ap     3.016364  
      55App    3.042766   113Ap     3.062824   114Ap     3.065223  
      56App    3.096259   115Ap     3.099773   116Ap     3.130930  
     117Ap     3.175465    57App    3.179517    58App    3.208854  
     118Ap     3.214843    59App    3.241562   119Ap     3.251343  
     120Ap     3.257755    60App    3.282927    61App    3.299233  
     121Ap     3.316532    62App    3.340565   122Ap     3.378182  
     123Ap     3.401824    63App    3.405874   124Ap     3.419542  
     125Ap     3.449270    64App    3.483114   126Ap     3.483127  
      65App    3.499975    66App    3.558210   127Ap     3.603268  
     128Ap     3.623004   129Ap     3.670736    67App    3.689498  
     130Ap     3.705284   131Ap     3.779526    68App    3.790683  
     132Ap     3.804528   133Ap     3.843624    69App    3.971699  
     134Ap     3.972472   135Ap     4.018104    70App    4.023356  
     136Ap     4.066060   137Ap     4.170335    71App    4.211847  
     138Ap     4.265245    72App    4.316273    73App    4.347704  
     139Ap     4.371575   140Ap     4.384202   141Ap     4.438138  
     142Ap     4.503658   143Ap     4.553611    74App    4.622779  
     144Ap     4.689743    75App    4.716128   145Ap     4.736478  
     146Ap     4.855031    76App    4.871726   147Ap     5.011588  
     148Ap     5.043013   149Ap     5.207838   150Ap     5.300793  
     151Ap     5.414404   152Ap     5.489358   153Ap    22.294126  
     154Ap    22.326646   155Ap    22.417294   156Ap    22.640362  
     157Ap    23.282769   158Ap    23.493169  

    Final Occupation by Irrep:
             Ap   App 
    DOCC [    18,    4 ]
    NA   [    18,    4 ]
    NB   [    18,    4 ]

  @DF-RKS Final Energy:  -233.45222084316688

   => Energetics <=

    Nuclear Repulsion Energy =            202.3885411695322887
    One-Electron Energy =                -713.1325729674977083
    Two-Electron Energy =                 306.0901625547868434
    DFT Exchange-Correlation Energy =     -28.7810865932623727
    Empirical Dispersion Energy =          -0.0172650067259325
    VV10 Nonlocal Energy =                  0.0000000000000000
    Total Energy =                       -233.4522208431668844

Computation Completed


Properties will be evaluated at   0.000000,   0.000000,   0.000000 [a0]

Properties computed using the SCF density matrix


 Multipole Moments:

 ------------------------------------------------------------------------------------
     Multipole            Electronic (a.u.)      Nuclear  (a.u.)        Total (a.u.)
 ------------------------------------------------------------------------------------

 L = 1.  Multiply by 2.5417464519 to convert [e a0] to [Debye]
 Dipole X            :          0.3803776           -0.0000019            0.3803757
 Dipole Y            :         -0.8250842            0.0000038           -0.8250805
 Dipole Z            :          0.0000000            0.0000000            0.0000000
 Magnitude           :                                                    0.9085392

 ------------------------------------------------------------------------------------

*** tstop() called on choehoyun-ui-MacBookAir.local at Sun Aug  9 16:20:44 2026
Module time:
	user time   =      35.37 seconds =       0.59 minutes
	system time =       0.69 seconds =       0.01 minutes
	total time  =          6 seconds =       0.10 minutes
Total time:
	user time   =      35.37 seconds =       0.59 minutes
	system time =       0.69 seconds =       0.01 minutes
	total time  =          6 seconds =       0.10 minutes

    Psi4 stopped on: Sunday, 09 August 2026 04:20PM
    Psi4 wall time for execution: 0:00:05.73

*** Psi4 exiting successfully. Buy a developer a beer!
