
    -----------------------------------------------------------------------
          Psi4: An Open-Source Ab Initio Electronic Structure Package
                               Psi4 1.11 release

                         Git: Rev {} zzzzzzz 


    D. G. A. Smith, L. A. Burns, A. C. Simmonett, R. M. Parrish,
    M. C. Schieber, R. Galvelis, P. Kraus, H. Kruse, R. Di Remigio,
    A. Alenaizan, A. M. James, S. Lehtola, J. P. Misiewicz, M. Scheurer,
    R. A. Shaw, J. B. Schriber, Y. Xie, Z. L. Glick, D. A. Sirianni,
    J. S. O'Brien, J. M. Waldrop, A. Kumar, E. G. Hohenstein,
    B. P. Pritchard, B. R. Brooks, H. F. Schaefer III, A. Yu. Sokolov,
    K. Patkowski, A. E. DePrince III, U. Bozkaya, R. A. King,
    F. A. Evangelista, J. M. Turney, T. D. Crawford, C. D. Sherrill,
    J. Chem. Phys. 152(18) 184108 (2020). https://doi.org/10.1063/5.0006002

                            Additional Code Authors
    E. T. Seidl, C. L. Janssen, E. F. Valeev, M. L. Leininger,
    J. F. Gonthier, R. M. Richard, H. R. McAlexander, M. Saitow, X. Wang,
    P. Verma, M. H. Lechner, A. Jiang, S. Behnle, A. G. Heide,
    M. F. Herbst, D. L. Poole, T. Győri, E. C. Mitchell, J. P. Pederson,
    and A. M. Wallace

             Previous Authors, Complete List of Code Contributors,
                       and Citations for Specific Modules
    https://github.com/psi4/psi4/blob/master/codemeta.json
    https://github.com/psi4/psi4/graphs/contributors
    https://psicode.org/psi4manual/master/introduction.html#citing-psifour

    -----------------------------------------------------------------------


    Psi4 started on: Sunday, 09 August 2026 01:07AM

    Process ID: 40344
    Host:       choehoyun-ui-MacBookAir.local
    PSIDATADIR: /Users/hoyoun/micromamba/envs/psi4env/share/psi4
    Memory:     500.0 MiB
    Threads:    1
    Addons:     a̶d̶c̶c̶, a̶m̶b̶i̶t̶, b̶s̶e̶, c̶c̶t̶3̶, c̶f̶o̶u̶r̶, c̶h̶e̶m̶p̶s̶2̶, c̶p̶p̶e̶, d̶d̶x̶, dftd3,
                d̶f̶t̶d̶4̶, dkh, ecpint, einsums, f̶o̶r̶t̶e̶, gauxc, g̶c̶p̶, g̶d̶m̶a̶,
                g̶e̶o̶m̶e̶t̶r̶i̶c̶, g̶p̶u̶_̶d̶f̶c̶c̶, i̶n̶t̶e̶g̶r̶a̶t̶o̶r̶x̶x̶, i̶p̶i̶,
                l̶i̶b̶e̶f̶p̶, m̶d̶i̶, m̶p̶2̶d̶, m̶r̶c̶c̶, ooo, o̶p̶e̶n̶f̶e̶r̶m̶i̶o̶n̶p̶s̶i̶4̶,
                pcmsolver, p̶s̶i̶4̶f̶o̶c̶k̶c̶i̶, p̶s̶i̶x̶a̶s̶, p̶y̶e̶i̶n̶s̶u̶m̶s̶, r̶e̶s̶p̶,
                s̶i̶m̶i̶n̶t̶, s̶n̶s̶m̶p̶2̶, v̶2̶r̶d̶m̶_̶c̶a̶s̶s̶c̶f̶

  ==> Input File <==

--------------------------------------------------------------------------
memory 6 GB
molecule mol {
0 1
C -0.00618256803372 0.71925785162404 0.00000000000000
C 1.19598184955537 0.00417996918582 0.00000000000000
C 1.20274936394999 -1.38579724400199 0.00000000000000
C 0.00215038981874 -2.09210084496682 0.00000000000000
C -1.20032157066466 -1.39442726573556 0.00000000000000
C -1.20134940108257 -0.00153827201636 0.00000000000000
C -0.00250646909789 2.22798261596777 0.00000000000000
H 2.13729671623884 0.54399826953001 0.00000000000000
H 2.14597978615431 -1.91979095591383 0.00000000000000
H 0.00598305363919 -3.17555874269830 0.00000000000000
H -2.14083521709075 -1.93309497603191 0.00000000000000
H -2.14526847786283 0.53277925197219 0.00000000000000
H -1.01769712849091 2.62730132522991 0.00000000000000
H 0.51200983648344 2.62340450892750 0.88016183450972
H 0.51200983648344 2.62340450892750 -0.88016183450972
units angstrom
no_reorient
no_com
}
set basis def2-TZVP
set scf_type df
set freeze_core true
energy('b3lyp-d3bj')
--------------------------------------------------------------------------

  Memory set to   5.588 GiB by Python driver.

Scratch directory: /tmp/
   => Libint2 <=

    Primary   basis highest AM E, G, H:  7, 6, 3
    Auxiliary basis highest AM E, G, H:  7, 7, 4
    Onebody   basis highest AM E, G, H:  -, -, -
    Solid Harmonics ordering:            Gaussian

*** tstart() called on choehoyun-ui-MacBookAir.local
*** at Sun Aug  9 01:07:02 2026

   => Loading Basis Set <=

    Name: DEF2-TZVP
    Role: ORBITAL
    Keyword: BASIS
    atoms 1-7  entry C          line   123 file /Users/hoyoun/micromamba/envs/psi4env/share/psi4/basis/def2-tzvp.gbs 
    atoms 8-15 entry H          line    15 file /Users/hoyoun/micromamba/envs/psi4env/share/psi4/basis/def2-tzvp.gbs 

   => B3LYP-D3(BJ): Empirical Dispersion <=

    Grimme's -D3 (BJ-damping) Dispersion Correction
    Grimme S.; Ehrlich S.; Goerigk L. (2011), J. Comput. Chem., 32: 1456

        s6 =       1.000000
        s8 =       1.988900
        a1 =       0.398100
        a2 =       4.421100


         ---------------------------------------------------------
                                   SCF
               by Justin Turney, Rob Parrish, Andy Simmonett
                          and Daniel G. A. Smith
                              RKS Reference
                        1 Threads,   5722 MiB Core
         ---------------------------------------------------------

  ==> Geometry <==

    Molecular point group: cs
    Full point group: Cs

    Geometry (in Angstrom), charge = 0, multiplicity = 1:

       Center              X                  Y                   Z               Mass       
    ------------   -----------------  -----------------  -----------------  -----------------
         C           -0.006182568034     0.719257851624     0.000000000000    12.000000000000
         C            1.195981849555     0.004179969186     0.000000000000    12.000000000000
         C            1.202749363950    -1.385797244002     0.000000000000    12.000000000000
         C            0.002150389819    -2.092100844967     0.000000000000    12.000000000000
         C           -1.200321570665    -1.394427265736     0.000000000000    12.000000000000
         C           -1.201349401083    -0.001538272016     0.000000000000    12.000000000000
         C           -0.002506469098     2.227982615968     0.000000000000    12.000000000000
         H            2.137296716239     0.543998269530     0.000000000000     1.007825032230
         H            2.145979786154    -1.919790955914     0.000000000000     1.007825032230
         H            0.005983053639    -3.175558742698     0.000000000000     1.007825032230
         H           -2.140835217091    -1.933094976032     0.000000000000     1.007825032230
         H           -2.145268477863     0.532779251972     0.000000000000     1.007825032230
         H           -1.017697128491     2.627301325230     0.000000000000     1.007825032230
         H            0.512009836483     2.623404508927     0.880161834510     1.007825032230
         H            0.512009836483     2.623404508927    -0.880161834510     1.007825032230

  Running in cs symmetry.

  Rotational constants: A =      0.18572  B =      0.08211  C =      0.05755 [cm^-1]
  Rotational constants: A =   5567.77948  B =   2461.72766  C =   1725.19656 [MHz]
  Nuclear repulsion =  269.404561440680141

  Charge       = 0
  Multiplicity = 1
  Electrons    = 50
  Nalpha       = 25
  Nbeta        = 25

  ==> Algorithm <==

  SCF Algorithm Type is DF.
  DIIS enabled.
  MOM disabled.
  Fractional occupation disabled.
  Guess Type is SAD.
  Energy threshold   = 1.00e-06
  Density threshold  = 1.00e-06
  Integral threshold = 1.00e-12

  ==> Primary Basis <==

  Basis Set: DEF2-TZVP
    Blend: DEF2-TZVP
    Number of shells: 109
    Number of basis functions: 265
    Number of Cartesian functions: 300
    Spherical Harmonics?: true
    Max angular momentum: 3

  ==> DFT Potential <==

   => LibXC <=

    Version 7.1.2
    S. Lehtola, C. Steigemann, M. J. T. Oliveira, and M. A. L. Marques,  SoftwareX 7, 1–5 (2018) (10.1016/j.softx.2017.11.002)

   => Composite Functional: B3LYP-D3BJ2B <= 

    B3LYP-d3bj2b Hyb-GGA Exchange-Correlation Functional

    P. J. Stephens, F. J. Devlin, C. F. Chabalowski, and M. J. Frisch,  J. Phys. Chem. 98, 11623 (1994) (10.1021/j100096a001)

    Deriv               =              1
    GGA                 =           TRUE
    Meta                =          FALSE

    Exchange Hybrid     =           TRUE
    MP2 Hybrid          =          FALSE

   => Exchange Functionals <=

    0.0800   Slater exchange
    0.7200         Becke 88

   => Exact (HF) Exchange <=

    0.2000               HF 

   => Correlation Functionals <=

    0.1900   Vosko, Wilk & Nusair (VWN5_RPA)
    0.8100   Lee, Yang & Parr

   => LibXC Density Thresholds  <==

    XC_HYB_GGA_XC_B3LYP:  1.00E-15 

   => Molecular Quadrature <=

    Radial Scheme          =       TREUTLER
    Pruning Scheme         =           NONE
    Nuclear Scheme         =       TREUTLER

    Blocking Scheme        =         OCTREE
    BS radius alpha        =              1
    Pruning alpha          =              1
    Radial Points          =             75
    Spherical Points       =            302
    Total Points           =         317473
    Total Blocks           =           2394
    Max Points             =            256
    Max Functions          =            257
    Weights Tolerance      =       1.00E-15

   => Loading Basis Set <=

    Name: (DEF2-TZVP AUX)
    Role: JKFIT
    Keyword: DF_BASIS_SCF
    atoms 1-7  entry C          line   198 file /Users/hoyoun/micromamba/envs/psi4env/share/psi4/basis/def2-universal-jkfit.gbs 
    atoms 8-15 entry H          line    18 file /Users/hoyoun/micromamba/envs/psi4env/share/psi4/basis/def2-universal-jkfit.gbs 

  ==> Integral Setup <==

  DFHelper Memory: AOs need 0.357 GiB; user supplied 2.362 GiB. 
  SCF_SUBTYPE=INCORE selected. In-core MEM_DF algorithm will be used.
  Using in-core AOs.

  ==> MemDFJK: Density-Fitted J/K Matrices <==

    J tasked:                   Yes
    K tasked:                   Yes
    wK tasked:                   No
    OpenMP threads:               1
    Memory [MiB]:              2418
    Algorithm:                 Core
    Schwarz Cutoff:           1E-12
    Mask sparsity (%):       3.2211
    Fitting Condition:        1E-10

   => Auxiliary Basis Set <=

  Basis Set: (DEF2-TZVP AUX)
    Blend: DEF2-UNIVERSAL-JKFIT
    Number of shells: 223
    Number of basis functions: 669
    Number of Cartesian functions: 783
    Spherical Harmonics?: true
    Max angular momentum: 4

  Cached 100.0% of DFT collocation blocks in 1.829 [GiB].

  Minimum eigenvalue in the overlap matrix is 8.5927439578E-06.
  Reciprocal condition number of the overlap matrix is 8.6303967416E-07.
    Using symmetric orthogonalization.

  ==> Pre-Iterations <==

  SCF Guess: Superposition of Atomic Densities via on-the-fly atomic UHF (no occupation information).

   -------------------------
    Irrep   Nso     Nmo    
   -------------------------
     A'       183     183 
     A"        82      82 
   -------------------------
    Total     265     265
   -------------------------

  ==> Iterations <==

                           Total Energy        Delta E     RMS |[F,P]|

   @DF-RKS iter SAD:  -271.08819669829404   -2.71088e+02   0.00000e+00 
   @DF-RKS iter   1:  -271.02240716744183    6.57895e-02   5.57800e-03 ADIIS/DIIS
   @DF-RKS iter   2:  -270.59069088368602    4.31716e-01   7.03791e-03 ADIIS/DIIS
   @DF-RKS iter   3:  -271.68158288105360   -1.09089e+00   7.59594e-04 ADIIS/DIIS
   @DF-RKS iter   4:  -271.68726522215485   -5.68234e-03   5.31074e-04 ADIIS/DIIS
   @DF-RKS iter   5:  -271.69239494449391   -5.12972e-03   1.78822e-04 ADIIS/DIIS
   @DF-RKS iter   6:  -271.69304664382315   -6.51699e-04   4.87962e-05 DIIS
   @DF-RKS iter   7:  -271.69309720677745   -5.05630e-05   5.13673e-06 DIIS
   @DF-RKS iter   8:  -271.69309769650948   -4.89732e-07   2.24492e-06 DIIS
   @DF-RKS iter   9:  -271.69309778705605   -9.05466e-08   5.45163e-07 DIIS
  Energy and wave function converged.


  ==> Post-Iterations <==

   Electrons on quadrature grid:
      Ntotal   =   49.9999924278 ; deviation = -7.572e-06 

    Orbital Energies [Eh]
    ---------------------

    Doubly Occupied:                                                      

       1Ap   -10.183800     2Ap   -10.174040     3Ap   -10.173712  
       4Ap   -10.171684     5Ap   -10.171475     6Ap   -10.171357  
       7Ap   -10.169465     8Ap    -0.858329     9Ap    -0.773288  
      10Ap    -0.745711    11Ap    -0.687155    12Ap    -0.606416  
      13Ap    -0.585692    14Ap    -0.513689    15Ap    -0.462841  
      16Ap    -0.455437     1App   -0.423786    17Ap    -0.421487  
      18Ap    -0.410744    19Ap    -0.387927     2App   -0.359382  
      20Ap    -0.344531    21Ap    -0.341285     3App   -0.256097  
       4App   -0.247040  

    Virtual:                                                              

       5App   -0.014301     6App   -0.008966    22Ap     0.042924  
      23Ap     0.057351    24Ap     0.073741    25Ap     0.092636  
      26Ap     0.104483     7App    0.109512    27Ap     0.114320  
      28Ap     0.130775    29Ap     0.153845     8App    0.157266  
      30Ap     0.160191    31Ap     0.184984     9App    0.193406  
      32Ap     0.224135    10App    0.225959    33Ap     0.229241  
      34Ap     0.238619    11App    0.255640    35Ap     0.255747  
      36Ap     0.269287    12App    0.290819    37Ap     0.302715  
      38Ap     0.314242    39Ap     0.321220    13App    0.347330  
      14App    0.351779    40Ap     0.353116    41Ap     0.364365  
      42Ap     0.374982    15App    0.408184    43Ap     0.409078  
      44Ap     0.417805    45Ap     0.419786    46Ap     0.427880  
      47Ap     0.444348    48Ap     0.452740    16App    0.464848  
      49Ap     0.470478    17App    0.494465    50Ap     0.496100  
      51Ap     0.497601    52Ap     0.511883    53Ap     0.518879  
      54Ap     0.546669    55Ap     0.561250    56Ap     0.616180  
      18App    0.644205    57Ap     0.655746    58Ap     0.670231  
      59Ap     0.678219    60Ap     0.702186    19App    0.710665  
      20App    0.748867    61Ap     0.757540    62Ap     0.779929  
      21App    0.815401    63Ap     0.816278    64Ap     0.835346  
      22App    0.838910    65Ap     0.875425    66Ap     0.893706  
      67Ap     0.927164    23App    0.930299    68Ap     0.956869  
      69Ap     0.994365    24App    1.000457    70Ap     1.012994  
      71Ap     1.055282    25App    1.083031    72Ap     1.093233  
      26App    1.119651    73Ap     1.122189    74Ap     1.196996  
      75Ap     1.203336    27App    1.217946    76Ap     1.225303  
      77Ap     1.240047    28App    1.247499    29App    1.263498  
      78Ap     1.286317    79Ap     1.301525    80Ap     1.310128  
      81Ap     1.384268    30App    1.402335    82Ap     1.440837  
      83Ap     1.453700    84Ap     1.464996    31App    1.478724  
      32App    1.502391    85Ap     1.517209    33App    1.538180  
      86Ap     1.549076    34App    1.549247    87Ap     1.565886  
      35App    1.607165    88Ap     1.609704    89Ap     1.639030  
      90Ap     1.663417    36App    1.665656    91Ap     1.689575  
      37App    1.693200    92Ap     1.713710    38App    1.724302  
      93Ap     1.742341    39App    1.844601    94Ap     1.857752  
      40App    1.901082    95Ap     1.950759    41App    1.958812  
      96Ap     1.981955    42App    2.014280    97Ap     2.040591  
      43App    2.069198    98Ap     2.071749    99Ap     2.088856  
     100Ap     2.127480   101Ap     2.140063   102Ap     2.164832  
     103Ap     2.209133    44App    2.215943   104Ap     2.230938  
     105Ap     2.246117   106Ap     2.273475    45App    2.347669  
      46App    2.370922   107Ap     2.388289   108Ap     2.456288  
     109Ap     2.487348   110Ap     2.500423    47App    2.503569  
     111Ap     2.525075    48App    2.537590   112Ap     2.548454  
     113Ap     2.599909    49App    2.600196   114Ap     2.619081  
     115Ap     2.652159   116Ap     2.664725    50App    2.677013  
     117Ap     2.678609   118Ap     2.693657    51App    2.703965  
     119Ap     2.730951    52App    2.773151    53App    2.775471  
     120Ap     2.779777   121Ap     2.790763   122Ap     2.825085  
      54App    2.829713   123Ap     2.843769   124Ap     2.849099  
      55App    2.892436   125Ap     2.896335    56App    2.942675  
     126Ap     2.976018   127Ap     2.989480    57App    2.999545  
      58App    3.025507   128Ap     3.028106   129Ap     3.094870  
      59App    3.104817   130Ap     3.108386    60App    3.132474  
     131Ap     3.146879   132Ap     3.166627    61App    3.168403  
     133Ap     3.191216    62App    3.212576   134Ap     3.213104  
      63App    3.232012   135Ap     3.250737   136Ap     3.273054  
      64App    3.287167    65App    3.306004   137Ap     3.325425  
      66App    3.351326   138Ap     3.358602   139Ap     3.381675  
      67App    3.385845    68App    3.391974   140Ap     3.408923  
      69App    3.468932   141Ap     3.472268   142Ap     3.500265  
     143Ap     3.505374    70App    3.555817   144Ap     3.556507  
     145Ap     3.604774    71App    3.610180   146Ap     3.677325  
      72App    3.700533   147Ap     3.747939   148Ap     3.767055  
     149Ap     3.777287    73App    3.807378   150Ap     3.857270  
      74App    3.895171   151Ap     3.899363   152Ap     3.948313  
     153Ap     4.014535   154Ap     4.052583   155Ap     4.086102  
      75App    4.111101   156Ap     4.117097   157Ap     4.173711  
      76App    4.198756    77App    4.217571   158Ap     4.232783  
      78App    4.245977    79App    4.255697   159Ap     4.277852  
     160Ap     4.323794   161Ap     4.350807   162Ap     4.420176  
      80App    4.422561   163Ap     4.522931   164Ap     4.592717  
      81App    4.669857    82App    4.684887   165Ap     4.695716  
     166Ap     4.708085   167Ap     4.867416   168Ap     4.876271  
     169Ap     4.961678   170Ap     5.046849   171Ap     5.206600  
     172Ap     5.228895   173Ap     5.355062   174Ap     5.396086  
     175Ap     5.451313   176Ap     5.641809   177Ap    21.909233  
     178Ap    22.388296   179Ap    22.578041   180Ap    22.593166  
     181Ap    22.701098   182Ap    22.782513   183Ap    23.184689  

    Final Occupation by Irrep:
             Ap   App 
    DOCC [    21,    4 ]
    NA   [    21,    4 ]
    NB   [    21,    4 ]

  @DF-RKS Final Energy:  -271.69309778705605

   => Energetics <=

    Nuclear Repulsion Energy =            269.4045614406801405
    One-Electron Energy =                -898.0738571264662369
    Two-Electron Energy =                 390.2047154422211861
    DFT Exchange-Correlation Energy =     -33.2042894911910267
    Empirical Dispersion Energy =          -0.0242280523001059
    VV10 Nonlocal Energy =                  0.0000000000000000
    Total Energy =                       -271.6930977870560469

Computation Completed


Properties will be evaluated at   0.000000,   0.000000,   0.000000 [a0]

Properties computed using the SCF density matrix


 Multipole Moments:

 ------------------------------------------------------------------------------------
     Multipole            Electronic (a.u.)      Nuclear  (a.u.)        Total (a.u.)
 ------------------------------------------------------------------------------------

 L = 1.  Multiply by 2.5417464519 to convert [e a0] to [Debye]
 Dipole X            :          0.1050973           -0.0895580            0.0155394
 Dipole Y            :         18.3103880          -18.1644556            0.1459324
 Dipole Z            :          0.0000000            0.0000000            0.0000000
 Magnitude           :                                                    0.1467575

 ------------------------------------------------------------------------------------

*** tstop() called on choehoyun-ui-MacBookAir.local at Sun Aug  9 01:08:01 2026
Module time:
	user time   =      31.67 seconds =       0.53 minutes
	system time =       4.57 seconds =       0.08 minutes
	total time  =         59 seconds =       0.98 minutes
Total time:
	user time   =      31.67 seconds =       0.53 minutes
	system time =       4.57 seconds =       0.08 minutes
	total time  =         59 seconds =       0.98 minutes

    Psi4 stopped on: Sunday, 09 August 2026 01:08AM
    Psi4 wall time for execution: 0:00:58.70

*** Psi4 exiting successfully. Buy a developer a beer!
