
    -----------------------------------------------------------------------
          Psi4: An Open-Source Ab Initio Electronic Structure Package
                               Psi4 1.11 release

                         Git: Rev {} zzzzzzz 


    D. G. A. Smith, L. A. Burns, A. C. Simmonett, R. M. Parrish,
    M. C. Schieber, R. Galvelis, P. Kraus, H. Kruse, R. Di Remigio,
    A. Alenaizan, A. M. James, S. Lehtola, J. P. Misiewicz, M. Scheurer,
    R. A. Shaw, J. B. Schriber, Y. Xie, Z. L. Glick, D. A. Sirianni,
    J. S. O'Brien, J. M. Waldrop, A. Kumar, E. G. Hohenstein,
    B. P. Pritchard, B. R. Brooks, H. F. Schaefer III, A. Yu. Sokolov,
    K. Patkowski, A. E. DePrince III, U. Bozkaya, R. A. King,
    F. A. Evangelista, J. M. Turney, T. D. Crawford, C. D. Sherrill,
    J. Chem. Phys. 152(18) 184108 (2020). https://doi.org/10.1063/5.0006002

                            Additional Code Authors
    E. T. Seidl, C. L. Janssen, E. F. Valeev, M. L. Leininger,
    J. F. Gonthier, R. M. Richard, H. R. McAlexander, M. Saitow, X. Wang,
    P. Verma, M. H. Lechner, A. Jiang, S. Behnle, A. G. Heide,
    M. F. Herbst, D. L. Poole, T. Győri, E. C. Mitchell, J. P. Pederson,
    and A. M. Wallace

             Previous Authors, Complete List of Code Contributors,
                       and Citations for Specific Modules
    https://github.com/psi4/psi4/blob/master/codemeta.json
    https://github.com/psi4/psi4/graphs/contributors
    https://psicode.org/psi4manual/master/introduction.html#citing-psifour

    -----------------------------------------------------------------------


    Psi4 started on: Sunday, 09 August 2026 01:09AM

    Process ID: 41014
    Host:       choehoyun-ui-MacBookAir.local
    PSIDATADIR: /Users/hoyoun/micromamba/envs/psi4env/share/psi4
    Memory:     500.0 MiB
    Threads:    1
    Addons:     a̶d̶c̶c̶, a̶m̶b̶i̶t̶, b̶s̶e̶, c̶c̶t̶3̶, c̶f̶o̶u̶r̶, c̶h̶e̶m̶p̶s̶2̶, c̶p̶p̶e̶, d̶d̶x̶, dftd3,
                d̶f̶t̶d̶4̶, dkh, ecpint, einsums, f̶o̶r̶t̶e̶, gauxc, g̶c̶p̶, g̶d̶m̶a̶,
                g̶e̶o̶m̶e̶t̶r̶i̶c̶, g̶p̶u̶_̶d̶f̶c̶c̶, i̶n̶t̶e̶g̶r̶a̶t̶o̶r̶x̶x̶, i̶p̶i̶,
                l̶i̶b̶e̶f̶p̶, m̶d̶i̶, m̶p̶2̶d̶, m̶r̶c̶c̶, ooo, o̶p̶e̶n̶f̶e̶r̶m̶i̶o̶n̶p̶s̶i̶4̶,
                pcmsolver, p̶s̶i̶4̶f̶o̶c̶k̶c̶i̶, p̶s̶i̶x̶a̶s̶, p̶y̶e̶i̶n̶s̶u̶m̶s̶, r̶e̶s̶p̶,
                s̶i̶m̶i̶n̶t̶, s̶n̶s̶m̶p̶2̶, v̶2̶r̶d̶m̶_̶c̶a̶s̶s̶c̶f̶

  ==> Input File <==

--------------------------------------------------------------------------
memory 6 GB
molecule mol {
0 1
C 0.00000000000000 0.00000000000000 0.48865287372101
C 0.00000000000000 0.00000000000000 -0.96688357360494
N 0.00000000000000 0.00000000000000 -2.11787959387170
H 0.51196222428647 -0.88674458402015 0.86537009791854
H 0.51196222428647 0.88674458402015 0.86537009791854
H -1.02392444857295 0.00000000000000 0.86537009791854
units angstrom
no_reorient
no_com
}
set basis def2-TZVP
set scf_type df
set freeze_core true
energy('b3lyp-d3bj')
--------------------------------------------------------------------------

  Memory set to   5.588 GiB by Python driver.

Scratch directory: /tmp/
   => Libint2 <=

    Primary   basis highest AM E, G, H:  7, 6, 3
    Auxiliary basis highest AM E, G, H:  7, 7, 4
    Onebody   basis highest AM E, G, H:  -, -, -
    Solid Harmonics ordering:            Gaussian

*** tstart() called on choehoyun-ui-MacBookAir.local
*** at Sun Aug  9 01:09:08 2026

   => Loading Basis Set <=

    Name: DEF2-TZVP
    Role: ORBITAL
    Keyword: BASIS
    atoms 1-2 entry C          line   123 file /Users/hoyoun/micromamba/envs/psi4env/share/psi4/basis/def2-tzvp.gbs 
    atoms 3   entry N          line   156 file /Users/hoyoun/micromamba/envs/psi4env/share/psi4/basis/def2-tzvp.gbs 
    atoms 4-6 entry H          line    15 file /Users/hoyoun/micromamba/envs/psi4env/share/psi4/basis/def2-tzvp.gbs 

   => B3LYP-D3(BJ): Empirical Dispersion <=

    Grimme's -D3 (BJ-damping) Dispersion Correction
    Grimme S.; Ehrlich S.; Goerigk L. (2011), J. Comput. Chem., 32: 1456

        s6 =       1.000000
        s8 =       1.988900
        a1 =       0.398100
        a2 =       4.421100


         ---------------------------------------------------------
                                   SCF
               by Justin Turney, Rob Parrish, Andy Simmonett
                          and Daniel G. A. Smith
                              RKS Reference
                        1 Threads,   5722 MiB Core
         ---------------------------------------------------------

  ==> Geometry <==

    Molecular point group: cs
    Full point group: C3v

    Geometry (in Angstrom), charge = 0, multiplicity = 1:

       Center              X                  Y                   Z               Mass       
    ------------   -----------------  -----------------  -----------------  -----------------
         C            0.000000000000     0.000000000000     0.488652873721    12.000000000000
         C            0.000000000000     0.000000000000    -0.966883573605    12.000000000000
         N            0.000000000000     0.000000000000    -2.117879593872    14.003074004430
         H            0.511962224286    -0.886744584020     0.865370097919     1.007825032230
         H            0.511962224286     0.886744584020     0.865370097919     1.007825032230
         H           -1.023924448573     0.000000000000     0.865370097919     1.007825032230

  Running in cs symmetry.

  Rotational constants: A =      5.31807  B =      0.20878  C =      0.20878 [cm^-1]
  Rotational constants: A = 159431.81040  B =   6259.14932  C =   6259.14932 [MHz]
  Nuclear repulsion =   58.611797150050023

  Charge       = 0
  Multiplicity = 1
  Electrons    = 22
  Nalpha       = 11
  Nbeta        = 11

  ==> Algorithm <==

  SCF Algorithm Type is DF.
  DIIS enabled.
  MOM disabled.
  Fractional occupation disabled.
  Guess Type is SAD.
  Energy threshold   = 1.00e-06
  Density threshold  = 1.00e-06
  Integral threshold = 1.00e-12

  ==> Primary Basis <==

  Basis Set: DEF2-TZVP
    Blend: DEF2-TZVP
    Number of shells: 45
    Number of basis functions: 111
    Number of Cartesian functions: 126
    Spherical Harmonics?: true
    Max angular momentum: 3

  ==> DFT Potential <==

   => LibXC <=

    Version 7.1.2
    S. Lehtola, C. Steigemann, M. J. T. Oliveira, and M. A. L. Marques,  SoftwareX 7, 1–5 (2018) (10.1016/j.softx.2017.11.002)

   => Composite Functional: B3LYP-D3BJ2B <= 

    B3LYP-d3bj2b Hyb-GGA Exchange-Correlation Functional

    P. J. Stephens, F. J. Devlin, C. F. Chabalowski, and M. J. Frisch,  J. Phys. Chem. 98, 11623 (1994) (10.1021/j100096a001)

    Deriv               =              1
    GGA                 =           TRUE
    Meta                =          FALSE

    Exchange Hybrid     =           TRUE
    MP2 Hybrid          =          FALSE

   => Exchange Functionals <=

    0.0800   Slater exchange
    0.7200         Becke 88

   => Exact (HF) Exchange <=

    0.2000               HF 

   => Correlation Functionals <=

    0.1900   Vosko, Wilk & Nusair (VWN5_RPA)
    0.8100   Lee, Yang & Parr

   => LibXC Density Thresholds  <==

    XC_HYB_GGA_XC_B3LYP:  1.00E-15 

   => Molecular Quadrature <=

    Radial Scheme          =       TREUTLER
    Pruning Scheme         =           NONE
    Nuclear Scheme         =       TREUTLER

    Blocking Scheme        =         OCTREE
    BS radius alpha        =              1
    Pruning alpha          =              1
    Radial Points          =             75
    Spherical Points       =            302
    Total Points           =         130231
    Total Blocks           =           1034
    Max Points             =            255
    Max Functions          =            110
    Weights Tolerance      =       1.00E-15

   => Loading Basis Set <=

    Name: (DEF2-TZVP AUX)
    Role: JKFIT
    Keyword: DF_BASIS_SCF
    atoms 1-2 entry C          line   198 file /Users/hoyoun/micromamba/envs/psi4env/share/psi4/basis/def2-universal-jkfit.gbs 
    atoms 3   entry N          line   258 file /Users/hoyoun/micromamba/envs/psi4env/share/psi4/basis/def2-universal-jkfit.gbs 
    atoms 4-6 entry H          line    18 file /Users/hoyoun/micromamba/envs/psi4env/share/psi4/basis/def2-universal-jkfit.gbs 

  ==> Integral Setup <==

  DFHelper Memory: AOs need 0.029 GiB; user supplied 3.829 GiB. 
  SCF_SUBTYPE=INCORE selected. In-core MEM_DF algorithm will be used.
  Using in-core AOs.

  ==> MemDFJK: Density-Fitted J/K Matrices <==

    J tasked:                   Yes
    K tasked:                   Yes
    wK tasked:                   No
    OpenMP threads:               1
    Memory [MiB]:              3920
    Algorithm:                 Core
    Schwarz Cutoff:           1E-12
    Mask sparsity (%):       0.3896
    Fitting Condition:        1E-10

   => Auxiliary Basis Set <=

  Basis Set: (DEF2-TZVP AUX)
    Blend: DEF2-UNIVERSAL-JKFIT
    Number of shells: 93
    Number of basis functions: 281
    Number of Cartesian functions: 331
    Spherical Harmonics?: true
    Max angular momentum: 4

  Cached 100.0% of DFT collocation blocks in 0.362 [GiB].

  Minimum eigenvalue in the overlap matrix is 1.6638793341E-04.
  Reciprocal condition number of the overlap matrix is 2.4318279876E-05.
    Using symmetric orthogonalization.

  ==> Pre-Iterations <==

  SCF Guess: Superposition of Atomic Densities via on-the-fly atomic UHF (no occupation information).

   -------------------------
    Irrep   Nso     Nmo    
   -------------------------
     A'        74      74 
     A"        37      37 
   -------------------------
    Total     111     111
   -------------------------

  ==> Iterations <==

                           Total Energy        Delta E     RMS |[F,P]|

   @DF-RKS iter SAD:  -132.10918325476433   -1.32109e+02   0.00000e+00 
   @DF-RKS iter   1:  -132.53427751985936   -4.25094e-01   9.43546e-03 ADIIS/DIIS
   @DF-RKS iter   2:  -132.41345624001707    1.20821e-01   1.08180e-02 ADIIS/DIIS
   @DF-RKS iter   3:  -132.76304956738284   -3.49593e-01   4.18089e-03 ADIIS/DIIS
   @DF-RKS iter   4:  -132.81341276455038   -5.03632e-02   7.07504e-04 ADIIS/DIIS
   @DF-RKS iter   5:  -132.81494591128771   -1.53315e-03   8.54912e-05 DIIS
   @DF-RKS iter   6:  -132.81496450775848   -1.85965e-05   2.43239e-05 DIIS
   @DF-RKS iter   7:  -132.81496653601369   -2.02826e-06   5.24564e-06 DIIS
   @DF-RKS iter   8:  -132.81496662464383   -8.86301e-08   2.53747e-07 DIIS
  Energy and wave function converged.


  ==> Post-Iterations <==

   Electrons on quadrature grid:
      Ntotal   =   22.0000020663 ; deviation = 2.066e-06 

    Orbital Energies [Eh]
    ---------------------

    Doubly Occupied:                                                      

       1Ap   -14.316612     2Ap   -10.228709     3Ap   -10.216732  
       4Ap    -0.913972     5Ap    -0.784739     6Ap    -0.524049  
       1App   -0.472626     7Ap    -0.472626     8Ap    -0.369528  
       2App   -0.339019     9Ap    -0.339019  

    Virtual:                                                              

      10Ap     0.017285     3App    0.022777    11Ap     0.022777  
       4App    0.101547    12Ap     0.101548    13Ap     0.104872  
      14Ap     0.133422     5App    0.198135    15Ap     0.198137  
      16Ap     0.254236     6App    0.254236    17Ap     0.271107  
      18Ap     0.349559    19Ap     0.374846     7App    0.424565  
      20Ap     0.424565    21Ap     0.445491     8App    0.474238  
      22Ap     0.474239    23Ap     0.538249    24Ap     0.630421  
       9App    0.630421    25Ap     0.648375    10App    0.717974  
      26Ap     0.717976    27Ap     0.818029    11App    0.925746  
      28Ap     0.925749    29Ap     1.051975    30Ap     1.178899  
      12App    1.178900    31Ap     1.219659    32Ap     1.234179  
      13App    1.234179    33Ap     1.289203    14App    1.399268  
      34Ap     1.399268    35Ap     1.481076    15App    1.481929  
      16App    1.511581    36Ap     1.511583    37Ap     1.654622  
      17App    1.654623    38Ap     1.700683    39Ap     1.930824  
      40Ap     1.949099    18App    1.949102    41Ap     2.036902  
      19App    2.215457    42Ap     2.215460    43Ap     2.248281  
      20App    2.320629    44Ap     2.320633    45Ap     2.360619  
      21App    2.453113    46Ap     2.453115    22App    2.620171  
      47Ap     2.621095    23App    2.624520    48Ap     2.624522  
      49Ap     2.719709    50Ap     2.762082    24App    2.762084  
      25App    2.917220    51Ap     2.917221    52Ap     2.937374  
      26App    2.993133    53Ap     2.993133    27App    3.099303  
      54Ap     3.099311    55Ap     3.150281    56Ap     3.274959  
      28App    3.313326    29App    3.448662    57Ap     3.448664  
      58Ap     3.563603    30App    3.615460    59Ap     3.615461  
      31App    3.890985    60Ap     3.890987    61Ap     3.970397  
      32App    3.975742    62Ap     4.164720    33App    4.350690  
      63Ap     4.350691    64Ap     4.457477    34App    4.543435  
      65Ap     4.543439    35App    4.690748    66Ap     4.690750  
      67Ap     4.827966    68Ap     5.135685    36App    5.135685  
      69Ap     5.582731    37App    5.684251    70Ap     5.684252  
      71Ap     6.044175    72Ap    22.343988    73Ap    23.260625  
      74Ap    32.061995  

    Final Occupation by Irrep:
             Ap   App 
    DOCC [     9,    2 ]
    NA   [     9,    2 ]
    NB   [     9,    2 ]

  @DF-RKS Final Energy:  -132.81496662464383

   => Energetics <=

    Nuclear Repulsion Energy =             58.6117971500500232
    One-Electron Energy =                -293.9307730404332801
    Two-Electron Energy =                 117.7392989208819216
    DFT Exchange-Correlation Energy =     -15.2305193523135376
    Empirical Dispersion Energy =          -0.0047703028289378
    VV10 Nonlocal Energy =                  0.0000000000000000
    Total Energy =                       -132.8149666246438301

Computation Completed


Properties will be evaluated at   0.000000,   0.000000,   0.000000 [a0]

Properties computed using the SCF density matrix


 Multipole Moments:

 ------------------------------------------------------------------------------------
     Multipole            Electronic (a.u.)      Nuclear  (a.u.)        Total (a.u.)
 ------------------------------------------------------------------------------------

 L = 1.  Multiply by 2.5417464519 to convert [e a0] to [Debye]
 Dipole X            :          0.0000009           -0.0000000            0.0000009
 Dipole Y            :          0.0000000            0.0000000            0.0000000
 Dipole Z            :         30.1073955          -28.5318996            1.5754959
 Magnitude           :                                                    1.5754959

 ------------------------------------------------------------------------------------

*** tstop() called on choehoyun-ui-MacBookAir.local at Sun Aug  9 01:09:15 2026
Module time:
	user time   =       3.96 seconds =       0.07 minutes
	system time =       0.34 seconds =       0.01 minutes
	total time  =          7 seconds =       0.12 minutes
Total time:
	user time   =       3.96 seconds =       0.07 minutes
	system time =       0.34 seconds =       0.01 minutes
	total time  =          7 seconds =       0.12 minutes

    Psi4 stopped on: Sunday, 09 August 2026 01:09AM
    Psi4 wall time for execution: 0:00:06.51

*** Psi4 exiting successfully. Buy a developer a beer!
