
    -----------------------------------------------------------------------
          Psi4: An Open-Source Ab Initio Electronic Structure Package
                               Psi4 1.11 release

                         Git: Rev {} zzzzzzz 


    D. G. A. Smith, L. A. Burns, A. C. Simmonett, R. M. Parrish,
    M. C. Schieber, R. Galvelis, P. Kraus, H. Kruse, R. Di Remigio,
    A. Alenaizan, A. M. James, S. Lehtola, J. P. Misiewicz, M. Scheurer,
    R. A. Shaw, J. B. Schriber, Y. Xie, Z. L. Glick, D. A. Sirianni,
    J. S. O'Brien, J. M. Waldrop, A. Kumar, E. G. Hohenstein,
    B. P. Pritchard, B. R. Brooks, H. F. Schaefer III, A. Yu. Sokolov,
    K. Patkowski, A. E. DePrince III, U. Bozkaya, R. A. King,
    F. A. Evangelista, J. M. Turney, T. D. Crawford, C. D. Sherrill,
    J. Chem. Phys. 152(18) 184108 (2020). https://doi.org/10.1063/5.0006002

                            Additional Code Authors
    E. T. Seidl, C. L. Janssen, E. F. Valeev, M. L. Leininger,
    J. F. Gonthier, R. M. Richard, H. R. McAlexander, M. Saitow, X. Wang,
    P. Verma, M. H. Lechner, A. Jiang, S. Behnle, A. G. Heide,
    M. F. Herbst, D. L. Poole, T. Győri, E. C. Mitchell, J. P. Pederson,
    and A. M. Wallace

             Previous Authors, Complete List of Code Contributors,
                       and Citations for Specific Modules
    https://github.com/psi4/psi4/blob/master/codemeta.json
    https://github.com/psi4/psi4/graphs/contributors
    https://psicode.org/psi4manual/master/introduction.html#citing-psifour

    -----------------------------------------------------------------------


    Psi4 started on: Monday, 10 August 2026 08:10PM

    Process ID: 79806
    Host:       choehoyun-ui-MacBookAir.local
    PSIDATADIR: /Users/hoyoun/micromamba/envs/psi4env/share/psi4
    Memory:     500.0 MiB
    Threads:    8
    Addons:     a̶d̶c̶c̶, a̶m̶b̶i̶t̶, b̶s̶e̶, c̶c̶t̶3̶, c̶f̶o̶u̶r̶, c̶h̶e̶m̶p̶s̶2̶, c̶p̶p̶e̶, d̶d̶x̶, dftd3,
                d̶f̶t̶d̶4̶, dkh, ecpint, einsums, f̶o̶r̶t̶e̶, gauxc, g̶c̶p̶, g̶d̶m̶a̶,
                g̶e̶o̶m̶e̶t̶r̶i̶c̶, g̶p̶u̶_̶d̶f̶c̶c̶, i̶n̶t̶e̶g̶r̶a̶t̶o̶r̶x̶x̶, i̶p̶i̶,
                l̶i̶b̶e̶f̶p̶, m̶d̶i̶, m̶p̶2̶d̶, m̶r̶c̶c̶, ooo, o̶p̶e̶n̶f̶e̶r̶m̶i̶o̶n̶p̶s̶i̶4̶,
                pcmsolver, p̶s̶i̶4̶f̶o̶c̶k̶c̶i̶, p̶s̶i̶x̶a̶s̶, p̶y̶e̶i̶n̶s̶u̶m̶s̶, r̶e̶s̶p̶,
                s̶i̶m̶i̶n̶t̶, s̶n̶s̶m̶p̶2̶, v̶2̶r̶d̶m̶_̶c̶a̶s̶s̶c̶f̶

  ==> Input File <==

--------------------------------------------------------------------------
memory 3 GB
molecule mol {
0 1
C -3.05716438982862 0.23943137540846 0.83300986130281
C -3.74671682838415 -0.96247797512676 0.66097193195765
C -3.10448924649558 -2.04618600905127 0.05330088914322
C -1.77835799557710 -1.92121935678507 -0.36769790507244
C -1.07150267258030 -0.71882062056243 -0.21375096338455
C -1.73400427384212 0.37083149267653 0.38760001094392
C 0.39306501552952 -0.65405631138232 -0.57931139115515
C 1.29348548900357 -0.96649174892677 0.64909697550966
C 2.76264994607622 -0.86331192451720 0.30088770968508
C 3.38510643784138 0.46069128575174 0.20544402744947
C 2.81098067653345 1.63320874673760 0.52423406285196
C -1.04496286255799 1.69958619892381 0.59918389076373
C -0.79964045193351 2.57267537257740 -0.57865202981145
C -1.25734587329604 2.31726669502231 -1.81263423198965
O -0.72332126456016 2.07117366013635 1.72363083547307
C 3.49068160743022 -1.96886939959200 0.04333308624258
H -4.77698688378748 -1.05191827799985 0.99932689935620
H -3.63279926726879 -2.98735159024635 -0.08687117757849
H -1.27134203246184 -2.77035633083513 -0.82496272216664
H -3.54473575147702 1.08836643298503 1.30865154192872
H 0.65852023049354 0.33343749054959 -0.96970018314509
H 0.61238136226179 -1.38756103228831 -1.36541226774825
H 1.06543123352942 -1.97929627625238 1.00319518906706
H 1.03872977571854 -0.27288471288464 1.46024418164242
H 4.54063532628001 -1.90097655804254 -0.23997743542745
H 3.05403377852244 -2.96365420894217 0.11941103561396
H 4.41843759365564 0.46337319988895 -0.14909200535638
H 3.36501436303185 2.56531024541071 0.43278551069237
H 1.79408852543349 1.70133201322582 0.90344582767269
H -0.23961009103375 3.48179593424037 -0.35852542252722
H -1.82532726500635 1.41252303005572 -2.02400759286157
H -1.07493421125035 3.00442915984487 -2.63715813907225
units angstrom
no_reorient
no_com
}
set basis def2-SVP
set scf_type df
set freeze_core true
set e_convergence 8
energy('b3lyp-d3bj')
--------------------------------------------------------------------------

  Memory set to   2.794 GiB by Python driver.

Scratch directory: /Users/hoyoun/Documents/Yonsei_AX_Camp/(진짜_이게_최종)/calibration/dft_work/_scratch/i5p/
   => Libint2 <=

    Primary   basis highest AM E, G, H:  7, 6, 3
    Auxiliary basis highest AM E, G, H:  7, 7, 4
    Onebody   basis highest AM E, G, H:  -, -, -
    Solid Harmonics ordering:            Gaussian

*** tstart() called on choehoyun-ui-MacBookAir.local
*** at Mon Aug 10 20:10:27 2026

   => Loading Basis Set <=

    Name: DEF2-SVP
    Role: ORBITAL
    Keyword: BASIS
    atoms 1-14, 16 entry C          line    90 file /Users/hoyoun/micromamba/envs/psi4env/share/psi4/basis/def2-svp.gbs 
    atoms 15       entry O          line   130 file /Users/hoyoun/micromamba/envs/psi4env/share/psi4/basis/def2-svp.gbs 
    atoms 17-32    entry H          line    15 file /Users/hoyoun/micromamba/envs/psi4env/share/psi4/basis/def2-svp.gbs 

   => B3LYP-D3(BJ): Empirical Dispersion <=

    Grimme's -D3 (BJ-damping) Dispersion Correction
    Grimme S.; Ehrlich S.; Goerigk L. (2011), J. Comput. Chem., 32: 1456

        s6 =       1.000000
        s8 =       1.988900
        a1 =       0.398100
        a2 =       4.421100


         ---------------------------------------------------------
                                   SCF
               by Justin Turney, Rob Parrish, Andy Simmonett
                          and Daniel G. A. Smith
                              RKS Reference
                        8 Threads,   2861 MiB Core
         ---------------------------------------------------------

  ==> Geometry <==

    Molecular point group: c1
    Full point group: C1

    Geometry (in Angstrom), charge = 0, multiplicity = 1:

       Center              X                  Y                   Z               Mass       
    ------------   -----------------  -----------------  -----------------  -----------------
         C           -3.057164389829     0.239431375408     0.833009861303    12.000000000000
         C           -3.746716828384    -0.962477975127     0.660971931958    12.000000000000
         C           -3.104489246496    -2.046186009051     0.053300889143    12.000000000000
         C           -1.778357995577    -1.921219356785    -0.367697905072    12.000000000000
         C           -1.071502672580    -0.718820620562    -0.213750963385    12.000000000000
         C           -1.734004273842     0.370831492677     0.387600010944    12.000000000000
         C            0.393065015530    -0.654056311382    -0.579311391155    12.000000000000
         C            1.293485489004    -0.966491748927     0.649096975510    12.000000000000
         C            2.762649946076    -0.863311924517     0.300887709685    12.000000000000
         C            3.385106437841     0.460691285752     0.205444027449    12.000000000000
         C            2.810980676533     1.633208746738     0.524234062852    12.000000000000
         C           -1.044962862558     1.699586198924     0.599183890764    12.000000000000
         C           -0.799640451934     2.572675372577    -0.578652029811    12.000000000000
         C           -1.257345873296     2.317266695022    -1.812634231990    12.000000000000
         O           -0.723321264560     2.071173660136     1.723630835473    15.994914619570
         C            3.490681607430    -1.968869399592     0.043333086243    12.000000000000
         H           -4.776986883787    -1.051918278000     0.999326899356     1.007825032230
         H           -3.632799267269    -2.987351590246    -0.086871177578     1.007825032230
         H           -1.271342032462    -2.770356330835    -0.824962722167     1.007825032230
         H           -3.544735751477     1.088366432985     1.308651541929     1.007825032230
         H            0.658520230494     0.333437490550    -0.969700183145     1.007825032230
         H            0.612381362262    -1.387561032288    -1.365412267748     1.007825032230
         H            1.065431233529    -1.979296276252     1.003195189067     1.007825032230
         H            1.038729775719    -0.272884712885     1.460244181642     1.007825032230
         H            4.540635326280    -1.900976558043    -0.239977435427     1.007825032230
         H            3.054033778522    -2.963654208942     0.119411035614     1.007825032230
         H            4.418437593656     0.463373199889    -0.149092005356     1.007825032230
         H            3.365014363032     2.565310245411     0.432785510692     1.007825032230
         H            1.794088525433     1.701332013226     0.903445827673     1.007825032230
         H           -0.239610091034     3.481795934240    -0.358525422527     1.007825032230
         H           -1.825327265006     1.412523030056    -2.024007592862     1.007825032230
         H           -1.074934211250     3.004429159845    -2.637158139072     1.007825032230

  Running in c1 symmetry.

  Rotational constants: A =      0.02454  B =      0.01301  C =      0.01000 [cm^-1]
  Rotational constants: A =    735.71772  B =    390.06482  C =    299.84659 [MHz]
  Nuclear repulsion = 1025.161976080304612

  Charge       = 0
  Multiplicity = 1
  Electrons    = 114
  Nalpha       = 57
  Nbeta        = 57

  ==> Algorithm <==

  SCF Algorithm Type is DF.
  DIIS enabled.
  MOM disabled.
  Fractional occupation disabled.
  Guess Type is SAD.
  Energy threshold   = 1.00e-08
  Density threshold  = 1.00e-06
  Integral threshold = 1.00e-12

  ==> Primary Basis <==

  Basis Set: DEF2-SVP
    Blend: DEF2-SVP
    Number of shells: 144
    Number of basis functions: 304
    Number of Cartesian functions: 320
    Spherical Harmonics?: true
    Max angular momentum: 2

  ==> DFT Potential <==

   => LibXC <=

    Version 7.1.2
    S. Lehtola, C. Steigemann, M. J. T. Oliveira, and M. A. L. Marques,  SoftwareX 7, 1–5 (2018) (10.1016/j.softx.2017.11.002)

   => Composite Functional: B3LYP-D3BJ2B <= 

    B3LYP-d3bj2b Hyb-GGA Exchange-Correlation Functional

    P. J. Stephens, F. J. Devlin, C. F. Chabalowski, and M. J. Frisch,  J. Phys. Chem. 98, 11623 (1994) (10.1021/j100096a001)

    Deriv               =              1
    GGA                 =           TRUE
    Meta                =          FALSE

    Exchange Hybrid     =           TRUE
    MP2 Hybrid          =          FALSE

   => Exchange Functionals <=

    0.0800   Slater exchange
    0.7200         Becke 88

   => Exact (HF) Exchange <=

    0.2000               HF 

   => Correlation Functionals <=

    0.1900   Vosko, Wilk & Nusair (VWN5_RPA)
    0.8100   Lee, Yang & Parr

   => LibXC Density Thresholds  <==

    XC_HYB_GGA_XC_B3LYP:  1.00E-15 

   => Molecular Quadrature <=

    Radial Scheme          =       TREUTLER
    Pruning Scheme         =           NONE
    Nuclear Scheme         =       TREUTLER

    Blocking Scheme        =         OCTREE
    BS radius alpha        =              1
    Pruning alpha          =              1
    Radial Points          =             75
    Spherical Points       =            302
    Total Points           =         659986
    Total Blocks           =           4794
    Max Points             =            256
    Max Functions          =            254
    Weights Tolerance      =       1.00E-15

   => Loading Basis Set <=

    Name: (DEF2-SVP AUX)
    Role: JKFIT
    Keyword: DF_BASIS_SCF
    atoms 1-14, 16 entry C          line   198 file /Users/hoyoun/micromamba/envs/psi4env/share/psi4/basis/def2-universal-jkfit.gbs 
    atoms 15       entry O          line   318 file /Users/hoyoun/micromamba/envs/psi4env/share/psi4/basis/def2-universal-jkfit.gbs 
    atoms 17-32    entry H          line    18 file /Users/hoyoun/micromamba/envs/psi4env/share/psi4/basis/def2-universal-jkfit.gbs 

  ==> Integral Setup <==

  DFHelper Memory: AOs need 0.885 GiB; user supplied 0.885 GiB. 
  SCF_SUBTYPE=INCORE selected. In-core MEM_DF algorithm will be used.
  Using in-core AOs.

  ==> MemDFJK: Density-Fitted J/K Matrices <==

    J tasked:                   Yes
    K tasked:                   Yes
    wK tasked:                   No
    OpenMP threads:               8
    Memory [MiB]:               906
    Algorithm:                 Core
    Schwarz Cutoff:           1E-12
    Mask sparsity (%):      17.6874
    Fitting Condition:        1E-10

   => Auxiliary Basis Set <=

  Basis Set: (DEF2-SVP AUX)
    Blend: DEF2-UNIVERSAL-JKFIT
    Number of shells: 496
    Number of basis functions: 1490
    Number of Cartesian functions: 1748
    Spherical Harmonics?: true
    Max angular momentum: 4

  Cached 33.3% of DFT collocation blocks in 1.037 [GiB].

  Minimum eigenvalue in the overlap matrix is 2.5419343687E-04.
  Reciprocal condition number of the overlap matrix is 3.6417073308E-05.
    Using symmetric orthogonalization.

  ==> Pre-Iterations <==

  SCF Guess: Superposition of Atomic Densities via on-the-fly atomic UHF (no occupation information).

   -------------------------
    Irrep   Nso     Nmo    
   -------------------------
     A        304     304 
   -------------------------
    Total     304     304
   -------------------------

  ==> Iterations <==

                           Total Energy        Delta E     RMS |[F,P]|

   @DF-RKS iter SAD:  -654.83235357348929   -6.54832e+02   0.00000e+00 
   @DF-RKS iter   1:  -655.05657970924983   -2.24226e-01   4.13507e-03 DIIS/ADIIS
   @DF-RKS iter   2:  -654.92101861819208    1.35561e-01   4.58513e-03 DIIS/ADIIS
   @DF-RKS iter   3:  -655.95527730514084   -1.03426e+00   8.10425e-04 DIIS/ADIIS
   @DF-RKS iter   4:  -655.97795687476764   -2.26796e-02   3.85952e-04 DIIS/ADIIS
   @DF-RKS iter   5:  -655.98346540578291   -5.50853e-03   1.14312e-04 DIIS/ADIIS
   @DF-RKS iter   6:  -655.98393137486892   -4.65969e-04   4.79344e-05 DIIS
   @DF-RKS iter   7:  -655.98402842114808   -9.70463e-05   1.15270e-05 DIIS
   @DF-RKS iter   8:  -655.98403478973023   -6.36858e-06   2.66393e-06 DIIS
   @DF-RKS iter   9:  -655.98403506216664   -2.72436e-07   1.32099e-06 DIIS
   @DF-RKS iter  10:  -655.98403514596703   -8.38004e-08   3.67067e-07 DIIS
   @DF-RKS iter  11:  -655.98403515210100   -6.13397e-09   1.09269e-07 DIIS
  Energy and wave function converged.


  ==> Post-Iterations <==

   Electrons on quadrature grid:
      Ntotal   =  114.0000453164 ; deviation = 4.532e-05 

    Orbital Energies [Eh]
    ---------------------

    Doubly Occupied:                                                      

       1A    -19.131830     2A    -10.281803     3A    -10.218062  
       4A    -10.208722     5A    -10.206298     6A    -10.202060  
       7A    -10.200728     8A    -10.198986     9A    -10.197357  
      10A    -10.196865    11A    -10.196545    12A    -10.193156  
      13A    -10.190902    14A    -10.189526    15A    -10.183288  
      16A    -10.183197    17A     -1.031564    18A     -0.863375  
      19A     -0.820714    20A     -0.797927    21A     -0.777072  
      22A     -0.752230    23A     -0.733742    24A     -0.710403  
      25A     -0.652034    26A     -0.636745    27A     -0.611949  
      28A     -0.594901    29A     -0.589621    30A     -0.545411  
      31A     -0.520204    32A     -0.505488    33A     -0.492649  
      34A     -0.477466    35A     -0.473332    36A     -0.468870  
      37A     -0.460307    38A     -0.443581    39A     -0.428334  
      40A     -0.422084    41A     -0.416644    42A     -0.400613  
      43A     -0.398517    44A     -0.394107    45A     -0.387737  
      46A     -0.383252    47A     -0.366655    48A     -0.363591  
      49A     -0.355858    50A     -0.344140    51A     -0.331206  
      52A     -0.310090    53A     -0.294315    54A     -0.269362  
      55A     -0.257874    56A     -0.252118    57A     -0.231985  

    Virtual:                                                              

      58A     -0.073454    59A     -0.033520    60A     -0.020501  
      61A     -0.016526    62A      0.046985    63A      0.059060  
      64A      0.066028    65A      0.075059    66A      0.077885  
      67A      0.086922    68A      0.096689    69A      0.102392  
      70A      0.105143    71A      0.114679    72A      0.125460  
      73A      0.131846    74A      0.141454    75A      0.143340  
      76A      0.146620    77A      0.156414    78A      0.158039  
      79A      0.178272    80A      0.187623    81A      0.214414  
      82A      0.220789    83A      0.238651    84A      0.251247  
      85A      0.276239    86A      0.284159    87A      0.294029  
      88A      0.299482    89A      0.308289    90A      0.320817  
      91A      0.333625    92A      0.351767    93A      0.358309  
      94A      0.367086    95A      0.375616    96A      0.385231  
      97A      0.388714    98A      0.399691    99A      0.423549  
     100A      0.431091   101A      0.435840   102A      0.441703  
     103A      0.446160   104A      0.446778   105A      0.456920  
     106A      0.468829   107A      0.472555   108A      0.481553  
     109A      0.487742   110A      0.491079   111A      0.511124  
     112A      0.514741   113A      0.528298   114A      0.533229  
     115A      0.535739   116A      0.557385   117A      0.561633  
     118A      0.576902   119A      0.583893   120A      0.590027  
     121A      0.611443   122A      0.621580   123A      0.627691  
     124A      0.631014   125A      0.634573   126A      0.640165  
     127A      0.646151   128A      0.651110   129A      0.651907  
     130A      0.655710   131A      0.660786   132A      0.664322  
     133A      0.671606   134A      0.680027   135A      0.684329  
     136A      0.689013   137A      0.695245   138A      0.701449  
     139A      0.704078   140A      0.717877   141A      0.725055  
     142A      0.731974   143A      0.734039   144A      0.746368  
     145A      0.751439   146A      0.767147   147A      0.776499  
     148A      0.783086   149A      0.795068   150A      0.810697  
     151A      0.814083   152A      0.818614   153A      0.837828  
     154A      0.846945   155A      0.861803   156A      0.901020  
     157A      0.908955   158A      0.922161   159A      0.948187  
     160A      0.952329   161A      1.004664   162A      1.016059  
     163A      1.057668   164A      1.073542   165A      1.101731  
     166A      1.113101   167A      1.140165   168A      1.150387  
     169A      1.157323   170A      1.172725   171A      1.194841  
     172A      1.211358   173A      1.218154   174A      1.230998  
     175A      1.240396   176A      1.242103   177A      1.255396  
     178A      1.263180   179A      1.270773   180A      1.274832  
     181A      1.294931   182A      1.298268   183A      1.301276  
     184A      1.321116   185A      1.344322   186A      1.400098  
     187A      1.434930   188A      1.486010   189A      1.497616  
     190A      1.526840   191A      1.533904   192A      1.584331  
     193A      1.594792   194A      1.612056   195A      1.618957  
     196A      1.631384   197A      1.644768   198A      1.654027  
     199A      1.662725   200A      1.679094   201A      1.691045  
     202A      1.703159   203A      1.704637   204A      1.706582  
     205A      1.720663   206A      1.730798   207A      1.733227  
     208A      1.740713   209A      1.754903   210A      1.763562  
     211A      1.766786   212A      1.776350   213A      1.780692  
     214A      1.784390   215A      1.797620   216A      1.806163  
     217A      1.810850   218A      1.817135   219A      1.834569  
     220A      1.837752   221A      1.849639   222A      1.856767  
     223A      1.880163   224A      1.891920   225A      1.918692  
     226A      1.933448   227A      1.944763   228A      1.949119  
     229A      1.953298   230A      1.963673   231A      1.976796  
     232A      1.981855   233A      2.005324   234A      2.021505  
     235A      2.034212   236A      2.055220   237A      2.065951  
     238A      2.067825   239A      2.094180   240A      2.099118  
     241A      2.100910   242A      2.106580   243A      2.139104  
     244A      2.147230   245A      2.151381   246A      2.184665  
     247A      2.221039   248A      2.239489   249A      2.256146  
     250A      2.275306   251A      2.283881   252A      2.299464  
     253A      2.302085   254A      2.306123   255A      2.316533  
     256A      2.322371   257A      2.349416   258A      2.360919  
     259A      2.372917   260A      2.410428   261A      2.432602  
     262A      2.442690   263A      2.452687   264A      2.470943  
     265A      2.495061   266A      2.499430   267A      2.515672  
     268A      2.522957   269A      2.544617   270A      2.570990  
     271A      2.603408   272A      2.617134   273A      2.626593  
     274A      2.633364   275A      2.660644   276A      2.687913  
     277A      2.711546   278A      2.720078   279A      2.728623  
     280A      2.755289   281A      2.771800   282A      2.780785  
     283A      2.821504   284A      2.834460   285A      2.842024  
     286A      2.862304   287A      2.872731   288A      2.912221  
     289A      2.924365   290A      2.964860   291A      2.967429  
     292A      2.986581   293A      3.001514   294A      3.035289  
     295A      3.072133   296A      3.106505   297A      3.133639  
     298A      3.234600   299A      3.289447   300A      3.291400  
     301A      3.361220   302A      3.379030   303A      3.593545  
     304A      3.624441  

    Final Occupation by Irrep:
              A 
    DOCC [    57 ]
    NA   [    57 ]
    NB   [    57 ]

  @DF-RKS Final Energy:  -655.98403515210100

   => Energetics <=

    Nuclear Repulsion Energy =           1025.1619760803046120
    One-Electron Energy =               -2920.9570759083380835
    Two-Electron Energy =                1317.3610327073970439
    DFT Exchange-Correlation Energy =     -77.4825130411846175
    Empirical Dispersion Energy =          -0.0674549902799019
    VV10 Nonlocal Energy =                  0.0000000000000000
    Total Energy =                       -655.9840351521008870

Computation Completed


Properties will be evaluated at   0.000000,   0.000000,   0.000000 [a0]

Properties computed using the SCF density matrix


 Multipole Moments:

 ------------------------------------------------------------------------------------
     Multipole            Electronic (a.u.)      Nuclear  (a.u.)        Total (a.u.)
 ------------------------------------------------------------------------------------

 L = 1.  Multiply by 2.5417464519 to convert [e a0] to [Debye]
 Dipole X            :         41.8652353          -42.2435538           -0.3783185
 Dipole Y            :        -20.0637001           19.7655993           -0.2981008
 Dipole Z            :        -30.5783070           29.4617666           -1.1165404
 Magnitude           :                                                    1.2159981

 ------------------------------------------------------------------------------------

*** tstop() called on choehoyun-ui-MacBookAir.local at Mon Aug 10 20:10:57 2026
Module time:
	user time   =     166.13 seconds =       2.77 minutes
	system time =       2.98 seconds =       0.05 minutes
	total time  =         30 seconds =       0.50 minutes
Total time:
	user time   =     166.13 seconds =       2.77 minutes
	system time =       2.98 seconds =       0.05 minutes
	total time  =         30 seconds =       0.50 minutes

    Psi4 stopped on: Monday, 10 August 2026 08:10PM
    Psi4 wall time for execution: 0:00:29.45

*** Psi4 exiting successfully. Buy a developer a beer!
